%%MatrixMarket matrix coordinate  real general
1040 1 1040
1 1 2.35348229038654679e+01
2 1 2.31403405904591075e+01
3 1 2.40208230057954708e+01
4 1 2.52609408637695871e+01
5 1 2.74165580454383218e+01
6 1 2.94863325271036700e+01
7 1 3.33060981524145561e+01
8 1 3.21740130666181088e+01
9 1 2.41010702946946580e+01
10 1 2.48328615180615699e+01
11 1 3.54783493584644845e+01
12 1 5.10568811381582464e+01
13 1 5.11468596835662908e+01
14 1 4.45848491528315947e+01
15 1 2.70976143932736697e+01
16 1 1.70115402613834021e+01
17 1 1.93553544571849727e+01
18 1 1.94669099383088309e+01
19 1 1.69209147051092756e+01
20 1 1.65363143332251816e+01
21 1 1.64852847082728715e+01
22 1 1.79128462536268245e+01
23 1 1.96767467813022634e+01
24 1 1.99650730062719255e+01
25 1 1.89585689814383365e+01
26 1 1.99764530657867283e+01
27 1 2.02997959389320535e+01
28 1 1.92926473356163477e+01
29 1 1.79544932067938383e+01
30 1 1.29896384743768287e+01
31 1 8.81822230504692151e+00
32 1 2.23030617141170096e+00
33 1 2.04154522090483148e+00
34 1 4.01889316562947485e+00
35 1 5.08469964095333538e+00
36 1 9.10499347869122211e+00
37 1 1.27681160870847457e+01
38 1 1.40902219971242761e+01
39 1 1.22862740435902325e+01
40 1 1.17730287445266129e+01
41 1 1.10749007282081031e+01
42 1 1.07401296697765858e+01
43 1 1.20407575910058995e+01
44 1 1.53862607781115877e+01
45 1 1.72462708393860460e+01
46 1 1.92566250312619545e+01
47 1 2.59588263669106105e+01
48 1 2.87790051686675810e+01
49 1 2.26629337894292640e+01
50 1 1.99708822649392665e+01
51 1 1.92174644849104439e+01
52 1 1.93750499252058788e+01
53 1 1.93142753874448019e+01
54 1 1.89703385009648891e+01
55 1 1.88980949349889826e+01
56 1 1.90116545375612418e+01
57 1 1.90450821554550025e+01
58 1 1.86344790144309833e+01
59 1 1.79750727845965699e+01
60 1 1.70939129691584455e+01
61 1 1.54249238695068485e+01
62 1 1.36379455831322201e+01
63 1 1.26273148207807022e+01
64 1 1.18657410322246122e+01
65 1 1.06703484544298881e+01
66 1 1.00534384275836430e+01
67 1 8.15253636582491481e+00
68 1 7.85907381869435984e+00
69 1 6.15333832648279966e+00
70 1 5.05015821731145031e+00
71 1 5.09288206761353113e+00
72 1 5.29814781433902837e+00
73 1 5.37045728015124268e+00
74 1 5.89972421053349994e+00
75 1 6.13447356968558921e+00
76 1 6.64239698299582937e+00
77 1 8.39603974205848935e+00
78 1 1.20859277753423058e+01
79 1 1.24182844765125324e+01
80 1 1.26453531705297060e+01
81 1 1.28031159891965949e+01
82 1 1.29964279004200467e+01
83 1 1.30723837888206766e+01
84 1 1.31337533038755208e+01
85 1 1.36095571692320441e+01
86 1 1.41657567481487678e+01
87 1 1.58484268102790438e+01
88 1 1.79725267050720667e+01
89 1 1.95528112066533062e+01
90 1 1.96929592914484637e+01
91 1 1.96445335434449397e+01
92 1 1.98058715979466520e+01
93 1 2.00915409275956556e+01
94 1 2.03681970572906259e+01
95 1 2.01111519478350331e+01
96 1 1.91264059766169687e+01
97 1 1.74118689866578329e+01
98 1 1.72181435384531589e+01
99 1 1.69384998108552018e+01
100 1 1.70521527910566491e+01
101 1 1.78056407993467083e+01
102 1 1.87344044458098189e+01
103 1 1.93248487459754692e+01
104 1 1.94170609418490976e+01
105 1 1.96192022509607789e+01
106 1 1.96064414676600762e+01
107 1 2.00393919112466889e+01
108 1 2.11664072199903153e+01
109 1 1.85952564186078391e+01
110 1 1.45017575746741745e+01
111 1 1.24418016502916178e+01
112 1 1.18192205464217803e+01
113 1 1.19882144442149166e+01
114 1 1.26967615610380200e+01
115 1 1.30323252535624388e+01
116 1 1.48695104144290227e+01
117 1 1.41090816777950323e+01
118 1 1.26273327106870603e+01
119 1 6.54404893407888455e+00
120 1 3.81855091642323474e+00
121 1 7.37054977676084300e-01
122 1 6.50047047353742746e-01
123 1 1.79357188556239100e+00
124 1 3.10529687571368918e+00
125 1 9.17470281105634200e+00
126 1 9.98846730939098215e+00
127 1 1.13596156792755725e+01
128 1 1.73449729666351971e+01
129 1 1.94577713343774086e+01
130 1 1.99232716488916459e+01
131 1 1.99860375293097121e+01
132 1 1.92827742211815512e+01
133 1 1.78731465771524931e+01
134 1 1.62071823551431891e+01
135 1 1.41095307505909808e+01
136 1 1.49031112591480976e+01
137 1 1.61771898125167191e+01
138 1 1.78776267226196488e+01
139 1 1.84151156010378223e+01
140 1 1.87059446378597016e+01
141 1 1.88594455186534447e+01
142 1 1.88724031178662663e+01
143 1 1.90194926917323102e+01
144 1 1.89492343551538163e+01
145 1 1.83486285577527966e+01
146 1 1.80487161521859214e+01
147 1 1.64170826946686255e+01
148 1 1.51942126757442644e+01
149 1 1.33230029880322594e+01
150 1 1.53859577373293135e+01
151 1 1.69647196400612081e+01
152 1 2.21004918750724819e+01
153 1 2.14714463242506461e+01
154 1 1.81266747858090440e+01
155 1 1.61212798566317197e+01
156 1 1.49734551352009273e+01
157 1 1.48409689946808072e+01
158 1 1.51120394585536761e+01
159 1 1.58110173759421819e+01
160 1 1.67975624653829847e+01
161 1 1.71185467368240296e+01
162 1 1.88967893435257750e+01
163 1 2.04068751891045075e+01
164 1 2.26783836913671095e+01
165 1 2.37593279977123331e+01
166 1 2.68684326010714933e+01
167 1 2.73989204298961049e+01
168 1 2.75124158795940232e+01
169 1 2.76630420742636929e+01
170 1 2.76505617783881021e+01
171 1 2.78136340554072135e+01
172 1 2.80143065963360556e+01
173 1 2.91420683501381959e+01
174 1 2.97492756812276369e+01
175 1 3.05172544843920548e+01
176 1 2.89823262152889320e+01
177 1 2.36140547152811102e+01
178 1 1.79431985891950063e+01
179 1 1.68410350815970453e+01
180 1 1.62700263183983296e+01
181 1 1.60593282231556280e+01
182 1 1.59745995777296752e+01
183 1 1.60429545718855096e+01
184 1 1.59604601624893814e+01
185 1 1.43876430618049298e+01
186 1 1.25385393409466950e+01
187 1 1.17147243266726804e+01
188 1 1.20763644901983920e+01
189 1 1.35798035040952332e+01
190 1 2.06759266210675783e+01
191 1 3.19141519119943347e+01
192 1 3.41208996044943902e+01
193 1 2.97158865568834436e+01
194 1 1.38879502966963617e+01
195 1 2.56531987998322784e+01
196 1 2.53320509213029119e+01
197 1 2.44267959576878333e+01
198 1 2.31494868662955859e+01
199 1 1.70439523321489617e+01
200 1 1.39316031011390944e+01
201 1 1.01508467229412069e+01
202 1 6.70832411165714593e+00
203 1 2.03355078365901454e+00
204 1 1.24170793965222881e+00
205 1 -5.96869112555594272e-01
206 1 -1.05938121249184802e+00
207 1 -1.23930564536726973e+00
208 1 -1.08563434626389554e+00
209 1 -6.61103741763570008e-01
210 1 8.73271915782822039e-01
211 1 1.29662463327770561e+00
212 1 4.52208154406814611e+00
213 1 6.08879161790747681e+00
214 1 4.64783194529086696e+00
215 1 2.54733363823399817e+00
216 1 1.97575655850856369e+00
217 1 2.99085082770718635e+00
218 1 3.98423123183248240e+00
219 1 6.87768310766541191e+00
220 1 1.05663658930072746e+01
221 1 1.17863576646946679e+01
222 1 1.27324947936829584e+01
223 1 1.22540643093318131e+01
224 1 1.26373288064900144e+01
225 1 1.32309170358150574e+01
226 1 1.41830937711653338e+01
227 1 1.58619242548219326e+01
228 1 1.81193624104324158e+01
229 1 1.90815996631861218e+01
230 1 2.08298951590976280e+01
231 1 1.95853612636638630e+01
232 1 1.85373637680283032e+01
233 1 1.90133620230038396e+01
234 1 2.05046067213585310e+01
235 1 2.01689416750322792e+01
236 1 1.96649299668698987e+01
237 1 1.82320687937148236e+01
238 1 1.79775062041336184e+01
239 1 1.78594879563277011e+01
240 1 1.77544468577930274e+01
241 1 1.77954013695585580e+01
242 1 1.77623480503170299e+01
243 1 1.76258253317630711e+01
244 1 1.77961105378767854e+01
245 1 1.74042240701830977e+01
246 1 1.74930086364492610e+01
247 1 1.75921909358121340e+01
248 1 1.95820787606721325e+01
249 1 2.31675901943549292e+01
250 1 3.02905679238453054e+01
251 1 3.12523942206699914e+01
252 1 3.27370194117463313e+01
253 1 3.44533035903133964e+01
254 1 3.64179734971227731e+01
255 1 3.64519093394924028e+01
256 1 3.57415603037011564e+01
257 1 3.23579979383053598e+01
258 1 3.28946335693654461e+01
259 1 3.10772557735067529e+01
260 1 2.80125699779123138e+01
261 1 2.83430940950956582e+01
262 1 3.07308909184647732e+01
263 1 2.99174765051882936e+01
264 1 2.80988933137973369e+01
265 1 2.53867021114575202e+01
266 1 2.39152925865333508e+01
267 1 2.13761993223384472e+01
268 1 1.72518970520905590e+00
269 1 1.23659338476216245e+01
270 1 1.78173323913314228e+01
271 1 2.53173275449682444e+00
272 1 1.87450292829548459e+01
273 1 3.91423319086744836e+00
274 1 2.76987691439895301e+01
275 1 2.76010263867257279e+01
276 1 2.47431176115525737e+01
277 1 1.27447474067872335e+01
278 1 1.91005096669520711e+01
279 1 2.26632066236407326e+01
280 1 9.31836940222208554e+00
281 1 1.87030187303694682e+01
282 1 1.36551454716127409e+01
283 1 1.05468203256390058e+01
284 1 6.30828832352244184e+00
285 1 1.32743385365092053e+01
286 1 1.82405702514429464e+01
287 1 1.78577263719450201e+01
288 1 6.66177607715944742e+00
289 1 1.96367490415826360e+01
290 1 1.90690483304591893e+01
291 1 2.73986288591678715e+01
292 1 1.27067682062052647e+01
293 1 1.93427296654038017e+01
294 1 1.28322097176844139e+01
295 1 1.27471008706610767e+00
296 1 1.82330598908226236e+01
297 1 8.15905621744605547e+00
298 1 1.34062180501074586e+01
299 1 1.85079825245719718e+01
300 1 1.30307253707503516e+01
301 1 1.60397702896644461e+01
302 1 2.08609082194873103e+01
303 1 1.56622613054708992e+01
304 1 6.10345318142719240e+00
305 1 5.63684908372857407e+00
306 1 1.85539950320082276e+01
307 1 1.08900603061214944e+01
308 1 2.96298425393384584e+01
309 1 3.58059220773032365e+01
310 1 1.89845602292800031e+01
311 1 2.01676813018139036e+01
312 1 2.25089527447897808e+01
313 1 1.49070704078106377e+01
314 1 8.75099049823440112e+00
315 1 2.21485205854164739e+01
316 1 2.44787301180779160e+01
317 1 1.39047259565060379e+01
318 1 1.98142152514875391e+01
319 1 2.15627422355548717e+01
320 1 2.12115366789762092e+01
321 1 2.87348633733515975e+01
322 1 2.20462489546454812e+01
323 1 2.95078955604363529e+01
324 1 1.28287392352378848e+01
325 1 3.14650370355782911e+01
326 1 1.62782218696928922e+01
327 1 1.93948168444625928e+01
328 1 1.93195980362156767e+01
329 1 2.79968596239195726e+01
330 1 1.27454317827614911e+01
331 1 2.04385783822226408e+01
332 1 3.19783354989947455e+01
333 1 2.68619961863440473e+01
334 1 2.61747976948883121e+01
335 1 2.96602349936700698e+01
336 1 2.98558486328233421e+01
337 1 3.59561532952675194e+01
338 1 1.80893758678876218e+01
339 1 1.47380602052676526e+01
340 1 1.28934180878470919e+01
341 1 1.99585706295066281e+01
342 1 3.15395236693468561e+01
343 1 4.11906673497011369e+01
344 1 1.89539085589343266e+01
345 1 7.67684936253976780e+00
346 1 2.08262307141002552e+01
347 1 2.45811527755760757e+01
348 1 3.95603528691398694e+01
349 1 1.67654152606872096e+01
350 1 2.83361485564444351e+01
351 1 2.76238691979533186e+01
352 1 1.92623873504291652e+01
353 1 1.93856736736277568e+01
354 1 8.20773730973475324e+00
355 1 2.35207650610975634e+01
356 1 2.03901890785160660e+01
357 1 1.91851507375998125e+01
358 1 1.65715557017836197e+01
359 1 1.79216395169127658e+01
360 1 2.10925628902184705e+01
361 1 2.61270061469692543e+01
362 1 1.85880018589263578e+01
363 1 1.57036866854790027e+01
364 1 1.21021512280262353e+01
365 1 2.37865796698229310e+01
366 1 1.14315803084209353e+01
367 1 2.61992097077459469e+01
368 1 1.82266693561113975e+01
369 1 1.98367480820394064e+01
370 1 1.54138944475455215e+01
371 1 2.87973615194454560e+01
372 1 3.21188733533930488e+01
373 1 1.78127600360088429e+01
374 1 1.64356734875973132e+01
375 1 6.85393807250437437e+00
376 1 1.27231870387124619e+01
377 1 2.66601391906271949e+01
378 1 1.71657937996109204e+01
379 1 1.87950465636860251e+01
380 1 1.79639729647477573e+01
381 1 1.80808520284472642e+01
382 1 1.77461732918354009e+01
383 1 1.89243434544587252e+01
384 1 2.44032876050194822e+01
385 1 1.94706100045443122e+01
386 1 1.68249583367820215e+01
387 1 1.36490632721052254e+01
388 1 1.28986690948132434e+01
389 1 1.62255309654893907e+01
390 1 1.14000280226796580e+01
391 1 1.15384272289655865e+01
392 1 9.67235735459301438e+00
393 1 1.54937781269409047e+01
394 1 1.88548309311277222e+01
395 1 2.84464276958730018e+01
396 1 3.24037740569707609e+01
397 1 3.41294906075662610e+01
398 1 2.04004371638759352e+01
399 1 1.60020500995781632e+01
400 1 2.18810480050089851e+01
401 1 2.17805514098748318e+01
402 1 2.83875415563872728e+01
403 1 1.83051956423757609e+01
404 1 1.11188203724148895e+01
405 1 1.32525207079692464e+01
406 1 1.93215671970314240e+01
407 1 4.77551086990825002e+00
408 1 2.26122358056451525e+01
409 1 1.47741992283174781e+01
410 1 2.36757920700437268e+01
411 1 2.57306878689669780e+01
412 1 2.26358587202120489e+01
413 1 1.34953513392117408e+01
414 1 1.34436720932542375e+01
415 1 1.27442586601502033e+01
416 1 3.73314459200435920e+01
417 1 1.41048252452367695e+01
418 1 3.75988251966539053e+01
419 1 4.08530692224525964e+01
420 1 3.60954389815762582e+01
421 1 2.43943539064309824e+01
422 1 2.00809431554734736e+01
423 1 5.35565520491221392e+00
424 1 1.12012578022605940e+01
425 1 1.98251357867041378e+01
426 1 2.07467505345708254e+01
427 1 1.64827761922743434e+01
428 1 2.31292246330550135e+01
429 1 1.97046966613906100e+01
430 1 2.10512890448591676e+01
431 1 2.90211161400133584e+01
432 1 2.46385716380821158e+01
433 1 2.09401379838168040e+01
434 1 1.78197363203883690e+01
435 1 1.82053280628177667e+01
436 1 2.09044563366567075e+01
437 1 2.28142497449311463e+01
438 1 1.09677017959227694e+01
439 1 9.04431158084132925e+00
440 1 9.08846188875046579e+00
441 1 1.11079606319153932e+01
442 1 1.43335432077218190e+01
443 1 7.34686854912201337e+00
444 1 5.32730639912159720e+00
445 1 5.26023716387561269e+00
446 1 5.94514499787086592e+00
447 1 6.59291120418260679e+00
448 1 5.16359612652341404e+00
449 1 2.82031123575020963e+01
450 1 2.77333070047592010e+01
451 1 2.73334284607394622e+01
452 1 2.53551959620489384e+01
453 1 2.69876953439843703e+01
454 1 2.83993471664351596e+01
455 1 2.12701949422122816e+01
456 1 1.56095893463815401e+01
457 1 3.64630502503841356e+01
458 1 3.06838749529025776e+01
459 1 2.49902588288877432e+01
460 1 7.11386348468398744e+00
461 1 5.82535750357457172e+00
462 1 2.68891490932840078e+01
463 1 1.87598905356797836e+01
464 1 1.51765467706601704e+01
465 1 2.09359725775621364e+01
466 1 2.52306127307465253e+01
467 1 2.34405209248335602e+01
468 1 2.40978299306068102e+01
469 1 2.92584787184425679e+01
470 1 2.39048577620723606e+01
471 1 3.45618099124671758e+01
472 1 2.25775994292381483e+01
473 1 2.73553790924649149e+01
474 1 3.20571980664495371e+01
475 1 9.80475173352868268e+00
476 1 1.27533793472310411e+01
477 1 1.15375230561302100e+01
478 1 1.84376341131340773e+01
479 1 1.69662620386764935e+01
480 1 2.47695241729730284e+01
481 1 3.78274490477453611e+01
482 1 4.54321772363112188e+01
483 1 3.61338489590467304e+01
484 1 4.24925243248275848e+01
485 1 8.62918317315369165e+00
486 1 8.13045678928603976e+00
487 1 2.91170976487041528e+01
488 1 1.60133001425664716e+01
489 1 1.95943208855891839e+01
490 1 4.33693346256554904e+01
491 1 1.78847863352439234e+01
492 1 3.28637717287843358e+01
493 1 2.43558746938661344e+01
494 1 2.59341085287975979e+01
495 1 5.47345477919454311e+01
496 1 4.02573706371529383e+01
497 1 4.50161918036154916e+01
498 1 3.98765322132984252e+01
499 1 4.63283152613019951e+01
500 1 3.04525389261708490e+01
501 1 4.29874655169393236e+01
502 1 3.86063782240733886e+01
503 1 4.43351381514029583e+01
504 1 3.86024537518372810e+01
505 1 4.25818256184358290e+01
506 1 1.01538896250970367e+01
507 1 1.91517355077985734e+01
508 1 1.31653982704053885e+01
509 1 3.25146957716101852e+01
510 1 1.83661904501862452e+01
511 1 3.72506393858059255e+01
512 1 3.14416831943581911e+01
513 1 3.29001755040968007e+01
514 1 2.82916109159667037e+01
515 1 2.14584884785839662e+01
516 1 2.32235656375954349e+01
517 1 2.71334133147325289e+01
518 1 2.59869936943155544e+01
519 1 2.43606841382100612e+01
520 1 2.39438639721876534e+01
521 1 2.86079571350581823e+01
522 1 3.11255691835148376e+01
523 1 2.05778879900033687e+01
524 1 1.46549948119773958e+01
525 1 5.44046323947712462e+00
526 1 5.32945355395638298e+00
527 1 4.94557990729899011e+00
528 1 5.30843573696578375e+00
529 1 6.37604264093681294e+00
530 1 5.17879864006320823e+00
531 1 5.39635544155226299e+00
532 1 1.01018007966108403e+01
533 1 9.29238965380655024e+00
534 1 7.89941433345252442e+00
535 1 6.97169776972238164e+00
536 1 1.00129023303854137e+01
537 1 1.28522218630995813e+01
538 1 5.15989430687268502e+00
539 1 2.87055622551471323e+01
540 1 2.74113611907401342e+01
541 1 3.00796243399533125e+01
542 1 2.79671187740883980e+01
543 1 2.65453604778007346e+01
544 1 3.49882746522245540e+01
545 1 3.28296972576359778e+01
546 1 6.94306210478285735e+00
547 1 1.99150734843543091e+01
548 1 1.85083433735640384e+01
549 1 1.44464738645929991e+01
550 1 1.62361453861354690e+01
551 1 1.74118641331051442e+01
552 1 1.92615073178692278e+01
553 1 2.56905794441774553e+01
554 1 3.03074808670780449e+01
555 1 3.18725437773906961e+01
556 1 3.05873799178685779e+01
557 1 4.04443247496581719e+01
558 1 2.96596884983684532e+01
559 1 3.80342411695885190e+01
560 1 4.12275157743995493e+01
561 1 2.01729923419182242e+01
562 1 2.70069367743178574e+01
563 1 2.60273466520085037e+01
564 1 2.08362779759268228e+01
565 1 2.21151075316846430e+01
566 1 1.91937945428954926e+01
567 1 1.99787488279199366e+01
568 1 2.90002296930443180e+01
569 1 2.40491695526167142e+01
570 1 3.64039488075652358e+01
571 1 2.96861249417176829e+01
572 1 3.70637448469838873e+01
573 1 1.99159408093124739e+01
574 1 2.16356109269075993e+01
575 1 4.06362804592627356e+01
576 1 2.40046691197404130e+01
577 1 1.47123978264185435e+01
578 1 1.30017059832825961e+01
579 1 2.49585451000169307e+01
580 1 3.35097502274254637e+01
581 1 1.16193670540636607e+01
582 1 3.58233392135810931e+01
583 1 4.04077389926426775e+01
584 1 8.84163368184144893e+00
585 1 1.26259908828993925e+01
586 1 9.70645385979194941e+00
587 1 4.94028205471622073e+01
588 1 3.90331179614870578e+01
589 1 1.28945714007040717e+01
590 1 1.13315214093593237e+01
591 1 1.93808133344767093e+01
592 1 2.00014468715449567e+01
593 1 2.35549351645091214e+01
594 1 2.29227138176496616e+01
595 1 1.63000343893350355e+01
596 1 2.90665795007220424e+01
597 1 2.30522837130396034e+01
598 1 2.31745799846522118e+01
599 1 2.03116875029736512e+01
600 1 2.56198373220516160e+01
601 1 3.94920562073856019e+01
602 1 2.45361690743660965e+01
603 1 5.51173382917835575e+00
604 1 8.92568460732931079e+00
605 1 1.30209465213277813e+01
606 1 1.08481646602921913e+01
607 1 1.23333312919125255e+01
608 1 1.62893027218960746e+01
609 1 9.28811777158061957e+00
610 1 9.48306241348097601e+00
611 1 1.75369964902003872e+01
612 1 2.90130972360064767e+01
613 1 2.72368158083944358e+01
614 1 2.89026252732541842e+01
615 1 2.67347622379793641e+01
616 1 3.44424832326005230e+01
617 1 4.35783786586713191e+01
618 1 2.91755589314334820e+01
619 1 3.11305552929339235e+01
620 1 2.80892079789832145e+01
621 1 2.24582814945281548e+01
622 1 1.95035430258996954e+01
623 1 2.54114842858894505e+01
624 1 3.95285354156600022e+01
625 1 2.66627872212660897e+01
626 1 4.23787824413804231e+01
627 1 3.76598503322009250e+01
628 1 3.84664141057385507e+01
629 1 2.18035395214532102e+01
630 1 1.31565086836839331e+01
631 1 1.98054701382865908e+01
632 1 2.77228504593766587e+01
633 1 4.96043868368746388e+01
634 1 4.14960251720883875e+01
635 1 4.42550698055698106e+01
636 1 4.72395205356144601e+01
637 1 4.87438124537200039e+01
638 1 5.46089684918784570e+01
639 1 4.02880988430242510e+01
640 1 4.27204883103258766e+01
641 1 5.17729794021483656e+01
642 1 4.18468291145369946e+01
643 1 2.07182514848870412e+01
644 1 1.84564612529209349e+01
645 1 1.58624441025590794e+01
646 1 2.10865819429905201e+01
647 1 2.04127389057755622e+01
648 1 1.46774880135447905e+01
649 1 2.01631444787605041e+01
650 1 1.42859822298325483e+01
651 1 3.44998159912049971e+01
652 1 4.20853460263510541e+01
653 1 3.25560609771121534e+01
654 1 5.42633098779833603e+01
655 1 4.20439556262321119e+01
656 1 2.15618783418614548e+01
657 1 2.49302758614923654e+01
658 1 2.06650991503434014e+01
659 1 2.34718601026559703e+01
660 1 3.04998168765308151e+01
661 1 5.69378815727068410e+00
662 1 4.91738973129989265e+00
663 1 7.49710577198971873e+00
664 1 1.95738822964549044e+01
665 1 8.20099572178747316e+00
666 1 1.18063402959625723e+01
667 1 1.47849620054020825e+01
668 1 7.58335842610171618e+00
669 1 2.78486301196478507e+01
670 1 2.85780111004004880e+01
671 1 4.78022653331844438e+01
672 1 2.75890049009043743e+01
673 1 2.95788000391700017e+01
674 1 2.02847897493164879e+01
675 1 4.07084539328038346e+01
676 1 3.57926937523507789e+01
677 1 2.20645634473737466e+01
678 1 3.27590427001867113e+01
679 1 3.10778450860329798e+01
680 1 3.24926083752963493e+01
681 1 4.13237018293548246e+01
682 1 4.03432184977778547e+01
683 1 3.97443837646569236e+01
684 1 4.08609517246758642e+01
685 1 3.78329159275145557e+01
686 1 4.89601773051979805e+01
687 1 5.18736019761628455e+01
688 1 3.60247493528656975e+01
689 1 4.04992379442859374e+01
690 1 4.37045670033196956e+01
691 1 4.62494136625392969e+01
692 1 3.91297380563390291e+01
693 1 2.98266323664211797e+01
694 1 3.46145849167676403e+01
695 1 3.68455282501462165e+01
696 1 4.86740028833407550e+01
697 1 5.00574703087888082e+01
698 1 4.75440357448696602e+01
699 1 1.82352902053206876e+01
700 1 2.00116620634430760e+01
701 1 6.75211147970240511e+00
702 1 9.64890443876380388e+00
703 1 2.71653059299712183e+01
704 1 2.67591141235664445e+01
705 1 3.01017414676231105e+01
706 1 3.03939025721523031e+01
707 1 2.99023278703506215e+01
708 1 2.36662964306028769e+01
709 1 2.94089690959984651e+01
710 1 4.08217001936819273e+01
711 1 4.46465508185211633e+01
712 1 4.04484853315640507e+01
713 1 3.96519765354416833e+01
714 1 2.56310730844237291e+01
715 1 3.71694590742154318e+01
716 1 3.75533281354956827e+01
717 1 3.20771087854956747e+01
718 1 2.60811253696114846e+01
719 1 3.83146964670370522e+01
720 1 4.32326040587861158e+01
721 1 3.97551411151794341e+01
722 1 3.05964129879286055e+01
723 1 3.52867770441602957e+01
724 1 3.04152153377331480e+01
725 1 3.53553695369374452e+01
726 1 3.50026468855589457e+01
727 1 3.45649033502722389e+01
728 1 3.99504197027520576e+01
729 1 3.67061343506376616e+01
730 1 4.49969668417413402e+01
731 1 1.35900406971995871e+01
732 1 1.97213456266800584e+01
733 1 1.96182208593893321e+01
734 1 1.92315926872175034e+01
735 1 1.97864405646539758e+01
736 1 2.39305648803947655e+01
737 1 3.09672167855204457e+01
738 1 1.56623425367468627e+01
739 1 1.17107795135155541e+01
740 1 1.66359487031546429e+01
741 1 3.66844014927191893e+01
742 1 2.97518409041625915e+01
743 1 2.97260016578106594e+01
744 1 3.42214119422015770e+01
745 1 3.04582105061229989e+01
746 1 2.72031738073019049e+01
747 1 3.22744139749381347e+01
748 1 3.59930377688345615e+01
749 1 4.47637166658007857e+01
750 1 1.02498993857999778e+01
751 1 8.42320791964310800e+00
752 1 1.35671792852504893e+01
753 1 1.03826352978437413e+01
754 1 1.35778219658883810e+01
755 1 1.17871009181314790e+01
756 1 1.29600527156741876e+01
757 1 2.34835240738601598e+01
758 1 1.57545184605523740e+01
759 1 1.97741434149284068e+01
760 1 3.07408291682405057e+01
761 1 1.55995266534759374e+01
762 1 1.42459744947952576e+01
763 1 1.41307966500652302e+01
764 1 7.00486741285082637e+00
765 1 1.14337138685396607e+01
766 1 2.24795771150905388e+01
767 1 3.13215094775970222e+01
768 1 1.78030405958691489e+01
769 1 1.95015489172058523e+01
770 1 2.04375487316418827e+01
771 1 1.75027510662450467e+01
772 1 1.83002444159965556e+01
773 1 1.51036954122607501e+01
774 1 1.70886971360202615e+01
775 1 1.65783714209069970e+01
776 1 2.92113275694927346e+01
777 1 2.73546966643734883e+01
778 1 1.45565378846201039e+01
779 1 1.52941250706155056e+01
780 1 1.77856120826550708e+01
781 1 1.81031128127934622e+01
782 1 1.91422065246553643e+01
783 1 2.92306800707303758e+01
784 1 2.60479157091001241e+01
785 1 2.13115961065752728e+01
786 1 2.58545654281340163e+01
787 1 2.60657331209742580e+01
788 1 2.43582063511046840e+01
789 1 2.48193970000047308e+01
790 1 2.55882389510603865e+01
791 1 3.27187728354876057e+01
792 1 2.96363731774198307e+01
793 1 2.45884414435811891e+01
794 1 1.80456292317325975e+01
795 1 2.68813477294192893e+01
796 1 3.16454565306836884e+01
797 1 2.74084611234888627e+01
798 1 3.60437658781561439e+01
799 1 3.56873192611620453e+01
800 1 3.15927323650490841e+01
801 1 3.42474752717367181e+01
802 1 3.08601484216309778e+01
803 1 3.29140617920706973e+01
804 1 2.87012204535613016e+01
805 1 2.51755149186858453e+01
806 1 2.94626419145414147e+01
807 1 2.50315151489812244e+01
808 1 2.74265529569074573e+01
809 1 2.28948098794343942e+01
810 1 1.88380110334461186e+01
811 1 2.25878794501803810e+01
812 1 3.52267782215612257e+01
813 1 2.92743331159362903e+01
814 1 3.12002329054232952e+01
815 1 2.76799660724389334e+01
816 1 2.80628560273697261e+01
817 1 2.79677048382795768e+01
818 1 3.18471727504186859e+01
819 1 3.40905117074198216e+01
820 1 3.27715213845533384e+01
821 1 3.22000030367064412e+01
822 1 3.47139950647780537e+01
823 1 3.36006498409161480e+01
824 1 3.58363969425942770e+01
825 1 3.52351237409586346e+01
826 1 4.16645843746340176e+01
827 1 4.07900126614848944e+01
828 1 1.95960930189428879e+01
829 1 2.97009772310113824e+01
830 1 1.92546626408334873e+01
831 1 1.90384422113837175e+01
832 1 2.36470887971653703e+01
833 1 2.42729803584961452e+01
834 1 2.15632854427578309e+01
835 1 2.85453883073275705e+01
836 1 2.70428556167316927e+01
837 1 3.07624756010882088e+01
838 1 1.21748403855490963e+01
839 1 2.48436024945611678e+01
840 1 2.89631562611471018e+01
841 1 1.67664509012713197e+01
842 1 1.57771024444416437e+01
843 1 1.75482790249261988e+01
844 1 1.76173393188370433e+01
845 1 1.31948611368278321e+01
846 1 1.45900175148875153e+01
847 1 1.91576660082911161e+01
848 1 1.56127040752991864e+01
849 1 2.11222808938494957e+01
850 1 6.07752492766199559e+00
851 1 1.64559163649918716e+01
852 1 1.64011893186342945e+01
853 1 1.76431392044025372e+01
854 1 1.35616194204927343e+01
855 1 1.25056436716297696e+01
856 1 1.42395101855254822e+01
857 1 2.14034120990427574e+01
858 1 1.64734651001849102e+01
859 1 1.58367171845459040e+01
860 1 4.53411729817859097e+01
861 1 4.39353086938620123e+01
862 1 3.84861367163624877e+01
863 1 3.01887638661614943e+01
864 1 3.36294644269542857e+01
865 1 2.96971109674254841e+01
866 1 3.47705802468345624e+01
867 1 2.97611770163906826e+01
868 1 3.15649480949568044e+01
869 1 3.84753147061157676e+01
870 1 3.25354041081966727e+01
871 1 3.11383345593906888e+01
872 1 3.26053728610551090e+01
873 1 3.09481863226588132e+01
874 1 3.01097446646245182e+01
875 1 3.72280155871075991e+01
876 1 3.03546505102461417e+01
877 1 3.06628043165149862e+01
878 1 1.54355205413678771e+01
879 1 2.49134419128095139e+01
880 1 2.60227648614855411e+01
881 1 2.36183153180633312e+01
882 1 2.80737079411146482e+01
883 1 2.72071391663541569e+01
884 1 3.08815092363843604e+01
885 1 3.14345016757665370e+01
886 1 3.05052337962301436e+01
887 1 3.13858509855234367e+01
888 1 3.20622918286500038e+01
889 1 3.11072552284739992e+01
890 1 3.81843635166070925e+01
891 1 2.63371791409164793e+01
892 1 2.82969469655504540e+01
893 1 2.35950459908489307e+01
894 1 1.87074207871848017e+01
895 1 1.43024926810188617e+01
896 1 1.92751891173401155e+01
897 1 1.50850570161524900e+01
898 1 1.93686382795842640e+01
899 1 2.19205639086189521e+01
900 1 1.45231432761933270e+01
901 1 1.26138521192412600e+01
902 1 1.15676068937400380e+01
903 1 2.16843145477507662e+01
904 1 2.18780178230442424e+01
905 1 2.05698547108783849e+01
906 1 3.26007961136023638e+01
907 1 1.94741529946961691e+01
908 1 2.63424617740830023e+01
909 1 2.61494697948944292e+01
910 1 2.62541889837929467e+01
911 1 2.82027511738201184e+01
912 1 4.15585978310606592e+01
913 1 3.63672201899924232e+01
914 1 3.73190425930642533e+01
915 1 2.92279462501961227e+01
916 1 1.71244779701804326e+01
917 1 2.00714929137067308e+01
918 1 2.65389772601924925e+01
919 1 1.79879024677173049e+01
920 1 2.25666495039584305e+01
921 1 2.65590548571345977e+01
922 1 2.63935343849741386e+01
923 1 5.45882025385969971e+00
924 1 5.00260038215886560e+00
925 1 5.96740571832276689e+00
926 1 8.53698239451572860e+00
927 1 5.87978679368225432e+00
928 1 6.11355671281696544e+00
929 1 9.04720013985378380e+00
930 1 1.42979266134235754e+01
931 1 1.11968509615156862e+01
932 1 7.47529285833831292e+00
933 1 2.71313929884607674e+01
934 1 2.36014197903610459e+01
935 1 2.76281958097687834e+01
936 1 2.12210085139528744e+01
937 1 2.92512159238729730e+01
938 1 2.84117419318458069e+01
939 1 2.43452385231149400e+01
940 1 1.73162690055955473e+01
941 1 1.95764555860941769e+01
942 1 2.50151540737203675e+01
943 1 2.61752218780313335e+01
944 1 4.97473816220453315e+01
945 1 5.23140515880154240e+01
946 1 4.34784999329742305e+01
947 1 3.68073864290748034e+01
948 1 4.47749783304938092e+01
949 1 4.10814819517039780e+01
950 1 3.41000994743619117e+01
951 1 1.08482375002438154e+01
952 1 9.51752226426931180e+00
953 1 1.45006087967962376e+01
954 1 1.81809309072453260e+01
955 1 2.08179563427141083e+01
956 1 1.56235860014461476e+01
957 1 1.51103022448824014e+01
958 1 1.58366957657402168e+01
959 1 1.36033642566554995e+01
960 1 2.69677188413236308e+01
961 1 1.54564655300420632e+01
962 1 1.95355118416247358e+01
963 1 2.50191313652476346e+01
964 1 3.33396412627001908e+01
965 1 1.61660906915237099e+01
966 1 2.52699458559384098e+01
967 1 2.60282148396831587e+01
968 1 1.81900394393584790e+01
969 1 1.73663240890417292e+01
970 1 2.35935844084095585e+01
971 1 3.53718832753115109e+01
972 1 1.97974176822455057e+01
973 1 1.92384847836555259e+01
974 1 2.85590798749631105e+01
975 1 3.09971114161792514e+01
976 1 3.02440974688683291e+01
977 1 3.45920318565995117e+01
978 1 2.65126728737989126e+01
979 1 2.27986995056298412e+01
980 1 3.28893579932785727e+01
981 1 2.71919709134794587e+01
982 1 3.21363612562484207e+01
983 1 2.77421767883561294e+01
984 1 1.16774857660584068e+01
985 1 2.96284946136735137e+01
986 1 2.81643235544966970e+01
987 1 2.35443180961571628e+01
988 1 2.60310130755520746e+01
989 1 2.79471341861409357e+01
990 1 3.34785593102557542e+01
991 1 3.41480200610248588e+01
992 1 3.33033067654211408e+01
993 1 3.23937861504930282e+01
994 1 2.59111857857287440e+01
995 1 2.81222959911037940e+01
996 1 2.35936779411713999e+01
997 1 1.14794261693546193e+01
998 1 1.65908999691984320e+01
999 1 1.96172799368212480e+01
1000 1 1.73646733222078886e+01
1001 1 1.24797020439868867e+01
1002 1 9.77587862640780081e+00
1003 1 3.37728194181879928e+01
1004 1 2.96498059099397970e+01
1005 1 1.54331263527077951e+01
1006 1 1.09403014762199788e+01
1007 1 1.40787533901396689e+01
1008 1 1.61164255810339192e+01
1009 1 1.34097756767334886e+01
1010 1 2.77741593887700517e+01
1011 1 3.68080418062604835e+01
1012 1 2.43821899820341805e+01
1013 1 1.95731214007336369e+01
1014 1 3.54395364716880437e+01
1015 1 2.85802939254105581e+01
1016 1 3.02720349801261008e+01
1017 1 2.62462168553857218e+01
1018 1 3.04489815676905842e+01
1019 1 3.37428103523459910e+01
1020 1 4.10770322262277858e+01
1021 1 2.90441564088581785e+01
1022 1 2.69771222336537377e+01
1023 1 3.18485942238472397e+01
1024 1 2.11421032396740500e+01
1025 1 2.47654201671857450e+01
1026 1 1.77402145381261107e+01
1027 1 3.37756245336524614e+01
1028 1 3.38657957305713140e+01
1029 1 3.14411770581086216e+01
1030 1 4.18016206437579498e+01
1031 1 3.86811332338180023e+01
1032 1 3.80932394778751231e+01
1033 1 3.35094547717724183e+01
1034 1 3.83552798427235047e+01
1035 1 3.39961892036825049e+01
1036 1 4.10141474924789478e+01
1037 1 2.59527618146214465e+01
1038 1 3.83340608204511852e+01
1039 1 4.03722682677922577e+01
1040 1 3.52244162009865320e+01
