%%MatrixMarket matrix coordinate  real general
1040 1 1040
1 1 8.17099474776168648e+01
2 1 8.27305918005543504e+01
3 1 7.99447728658817311e+01
4 1 5.30570867768652903e+01
5 1 -7.16858501666948484e+01
6 1 -3.75745813113755617e+02
7 1 -3.10649155861121699e+03
8 1 -1.49854557752659616e+03
9 1 8.56876013536101055e+01
10 1 1.72631875735496891e+02
11 1 -1.93108996297917230e+02
12 1 -1.10186219533244162e+03
13 1 -2.10536486039742340e+03
14 1 -3.40175885526572984e+03
15 1 5.38792210763348933e+01
16 1 2.34768644159121868e+03
17 1 -2.81174190565519666e+02
18 1 -5.44871341547224347e+02
19 1 6.13607005633197332e+02
20 1 3.74525443281923231e+02
21 1 2.99427531525561335e+02
22 1 1.47336436030597696e+02
23 1 -3.54674577641868837e+02
24 1 -3.16124969079794539e+02
25 1 -5.13092101758920421e+02
26 1 -8.05354306454582115e+02
27 1 -4.52259107449434282e+02
28 1 -3.02546490094671697e+02
29 1 -1.49083183818383702e+02
30 1 2.65799079494118303e+02
31 1 3.90428632793859720e+02
32 1 4.45597337810586794e+02
33 1 4.45757884677439449e+02
34 1 4.47727724207337360e+02
35 1 4.44210355131701590e+02
36 1 4.14327890078242376e+02
37 1 2.86784482871625301e+02
38 1 1.59177988020181516e+02
39 1 1.42140245969082116e+02
40 1 1.41117434499248020e+02
41 1 1.41116696578866481e+02
42 1 1.41116085332323564e+02
43 1 1.41113284127175177e+02
44 1 1.06176155223142558e+02
45 1 6.13614127553476578e+01
46 1 1.66115875298873341e+01
47 1 -1.16952015855140971e+02
48 1 -1.69871523781710749e+02
49 1 -3.08114448105927643e+01
50 1 8.24506855127941840e+00
51 1 -4.85759106868413504e+00
52 1 -2.13664197000169409e+01
53 1 -2.19220648733063719e+01
54 1 -2.24364801750503666e+01
55 1 -2.22074464878520921e+01
56 1 -2.22569347712495045e+01
57 1 -2.22865743265802045e+01
58 1 -2.17819839514550715e+01
59 1 -2.00528509884136845e+01
60 1 -1.72395837679888970e+01
61 1 -1.10005016478379449e+01
62 1 -3.31715560718041935e+00
63 1 1.03063807294443111e+00
64 1 4.36901230912874272e+00
65 1 9.63111332515994434e+00
66 1 1.23234660778559846e+01
67 1 2.08312552304875425e+01
68 1 2.22654678390902845e+01
69 1 3.19153314448015628e+01
70 1 3.35673537526083763e+01
71 1 2.97200909380284592e+01
72 1 2.69411620309428983e+01
73 1 2.61974691371943074e+01
74 1 2.33663084196205553e+01
75 1 2.22400039280795205e+01
76 1 2.02410813558534883e+01
77 1 8.56930865436863343e+00
78 1 -1.69714985159443899e+01
79 1 -1.36116807866479004e+01
80 1 -1.11974981882681508e+01
81 1 -9.48746276678744671e+00
82 1 -7.37706411591419364e+00
83 1 -6.36080320265418919e+00
84 1 -5.32365342627959759e+00
85 1 -3.82066209120460742e-01
86 1 3.09799984418052965e+00
87 1 1.34882514711975805e+01
88 1 2.19183102885631769e+01
89 1 3.66612879587313643e+01
90 1 4.64883137701178200e+01
91 1 4.89755469610222463e+01
92 1 5.37611550881822424e+01
93 1 5.60308912363775562e+01
94 1 5.54777521781056109e+01
95 1 5.61583815775494983e+01
96 1 6.20570916687972414e+01
97 1 6.91557339244754417e+01
98 1 6.94311468721712544e+01
99 1 7.11751096771349410e+01
100 1 7.18396168374648738e+01
101 1 7.31031783771312007e+01
102 1 8.29597006581961125e+01
103 1 1.16205788695293535e+02
104 1 1.24524585426106199e+02
105 1 1.33715718955625221e+02
106 1 1.43941898784497141e+02
107 1 1.73234485713919611e+02
108 1 1.94364108124395955e+02
109 1 3.11925336332653160e+02
110 1 3.39777989473286937e+02
111 1 3.06679305040417091e+02
112 1 9.42413454956642056e+01
113 1 6.23908993929437301e+01
114 1 1.27940162738786132e+01
115 1 -1.02237132600659084e+01
116 1 -1.08170496269577157e+02
117 1 -1.14514371766344496e+02
118 1 -8.81983833651510736e+01
119 1 2.04483278195596483e+02
120 1 3.52644026371431949e+02
121 1 5.10238448107270926e+02
122 1 5.07928220825563244e+02
123 1 7.11837101492691318e+02
124 1 8.05946937181457088e+02
125 1 5.42534763312173936e+02
126 1 3.70970729426313824e+02
127 1 2.37146060139801961e+02
128 1 -3.03314164447617486e+02
129 1 -2.72127341210231805e+02
130 1 -2.34228567639185400e+02
131 1 -2.12531903451845693e+02
132 1 -1.46433116705048434e+02
133 1 -8.11754923388339478e+01
134 1 -9.13760501160217764e+00
135 1 5.41190561997388215e+01
136 1 9.71752895981791198e+00
137 1 -5.22763196145556961e+01
138 1 -1.12224465336033603e+02
139 1 -8.51809540284667861e+01
140 1 -5.33558558967597136e+01
141 1 -4.70867246930989225e+01
142 1 -4.29063571790005085e+01
143 1 -3.66674175714762853e+01
144 1 -3.63870011585036721e+01
145 1 -3.16029584259325205e+01
146 1 -2.87956017452024291e+01
147 1 -1.75619601697143635e+00
148 1 2.55385045865905873e+01
149 1 9.35020035700661509e+01
150 1 -2.70723937682953526e+01
151 1 -1.15156257494545244e+02
152 1 -4.86655826681129611e+02
153 1 -3.73013408235197119e+02
154 1 8.95599487637940967e+01
155 1 1.50085747252697729e+02
156 1 1.83455805474702743e+02
157 1 1.91999577537162907e+02
158 1 2.10562473159117928e+02
159 1 2.25664269548554785e+02
160 1 1.90097601813426081e+02
161 1 1.67262996866736643e+02
162 1 7.79225643929870415e+01
163 1 3.22569577483087855e+01
164 1 -1.40630038397360515e+01
165 1 -9.19974193209766256e+00
166 1 -1.24142653600757447e+00
167 1 4.15492423860536242e+00
168 1 5.80779206566324113e+00
169 1 9.74327655807774029e+00
170 1 1.19955798882825455e+01
171 1 1.84015857091036565e+01
172 1 2.76726631079764225e+01
173 1 7.00008273001223671e+01
174 1 5.77701937879260896e+01
175 1 1.12895138695691060e+01
176 1 -6.05118312508690863e+01
177 1 -1.44552427809584607e+01
178 1 5.53628146892430166e+01
179 1 6.34897530507897798e+01
180 1 6.78902014997074872e+01
181 1 6.88024300292984208e+01
182 1 6.95451999930427576e+01
183 1 7.64487680977406825e+01
184 1 1.02050001511462838e+02
185 1 1.85455814487175189e+02
186 1 3.36382470971879513e+02
187 1 5.66523295744685583e+02
188 1 6.89160658681131736e+02
189 1 1.02419584686289181e+03
190 1 2.03635030591005005e+02
191 1 -6.43444869384549634e+02
192 1 -3.33521082477691107e+03
193 1 -1.24492395186819817e+03
194 1 1.41148581344350850e+03
195 1 -5.35006696515186832e+02
196 1 -4.78723062396448540e+02
197 1 -3.67221003135913350e+02
198 1 -2.78428540458477869e+02
199 1 -8.07548047394340216e+01
200 1 -2.19439055316232761e+01
201 1 3.75657360520950618e+01
202 1 7.64210099143868860e+01
203 1 1.00352504405303122e+02
204 1 1.02945109829129578e+02
205 1 1.04728967280322664e+02
206 1 1.04817004280148623e+02
207 1 1.04869528579404005e+02
208 1 1.04866383868566274e+02
209 1 1.04998456426037066e+02
210 1 1.05703185974860730e+02
211 1 1.06328375267526908e+02
212 1 1.20778729079730340e+02
213 1 1.50369197806457919e+02
214 1 3.42129304307770269e+02
215 1 4.52851440185995500e+02
216 1 4.51850288183137991e+02
217 1 4.32495032344680624e+02
218 1 4.18070474952421648e+02
219 1 3.74950908388551454e+02
220 1 3.62770671179154192e+02
221 1 3.30174927151188911e+02
222 1 2.80707617774644348e+02
223 1 2.77254724411741620e+02
224 1 2.76920120222069272e+02
225 1 2.76541963711755614e+02
226 1 3.17192810131385727e+02
227 1 3.50330530042703458e+02
228 1 3.05315291075023197e+02
229 1 2.04691177083752962e+02
230 1 1.20994853473263703e+02
231 1 2.07989582596375328e+02
232 1 2.73280864813337246e+02
233 1 1.63059159916415894e+02
234 1 5.35858006828902447e+01
235 1 5.31749844335265038e+01
236 1 6.29597697369175933e+01
237 1 7.64513099762529293e+01
238 1 8.34582635279289065e+01
239 1 8.39883266716373953e+01
240 1 8.31815303539468403e+01
241 1 8.19353669391845187e+01
242 1 8.52871614374467413e+01
243 1 9.32558843688883883e+01
244 1 1.07476884980191400e+02
245 1 2.17920928385729241e+02
246 1 3.77365012687188596e+02
247 1 5.89701053611510815e+02
248 1 8.18257384947712808e+02
249 1 1.24630484768868496e+03
250 1 8.57848983047554384e+02
251 1 3.81200864195377221e+02
252 1 1.67104424685904377e+02
253 1 -6.42155452331640220e+01
254 1 -3.50393849449930144e+02
255 1 -5.85843840659286684e+02
256 1 -6.64419783099923052e+02
257 1 -9.87025023415930178e+01
258 1 -2.75556464184551771e+02
259 1 -8.08109862679778644e+02
260 1 3.85377456313603830e+02
261 1 8.47407180757960077e+02
262 1 9.56261385840846430e+01
263 1 -4.44621527038617970e+01
264 1 -8.34294422545012004e+00
265 1 6.12774753296421792e+01
266 1 7.62383036483507084e+01
267 1 -5.66438976759476304e+02
268 1 5.42765596079840407e+02
269 1 3.74694408006518316e+01
270 1 8.42400015025296938e+01
271 1 1.07598972282966443e+02
272 1 -3.68207286811581369e+01
273 1 4.63947667721351593e+02
274 1 2.48129289470772875e+02
275 1 5.13941248187164135e+00
276 1 -4.55317780671968597e-01
277 1 4.16834538983572202e+02
278 1 3.56208147891038436e+02
279 1 1.27794491919315135e+02
280 1 1.60070221341704091e+01
281 1 -2.23614111087629581e+01
282 1 3.12467542157090111e+03
283 1 6.55382958236801301e+02
284 1 4.53264421390297457e+02
285 1 1.38852530827996645e+02
286 1 -1.25529809498125042e+03
287 1 2.29721036151248057e+02
288 1 9.15155097975652723e+01
289 1 -3.22198518338319047e+02
290 1 4.99391275681076536e+02
291 1 4.06635863109293723e+02
292 1 -8.51034937029712069e+00
293 1 -1.64675670450925047e+01
294 1 -2.89989111564570692e+01
295 1 1.04394636030956804e+02
296 1 1.39880218566652559e+01
297 1 2.13366003769168984e+01
298 1 5.26198220703147058e+02
299 1 2.28820299989260576e+02
300 1 1.88272880636731941e+01
301 1 -2.03838991256434582e+02
302 1 6.44219331537440496e+01
303 1 2.35248223483650008e+02
304 1 3.28846794234203585e+01
305 1 2.50761600993510356e+01
306 1 8.85647693635078497e+01
307 1 4.30087778582064232e+02
308 1 -1.60964809992425330e+02
309 1 -1.10525356572149985e+03
310 1 1.92675001660637946e+02
311 1 -2.17213876372013544e+02
312 1 2.86138951216913426e+02
313 1 -1.22039592613092172e+01
314 1 4.60400638235913220e+02
315 1 9.72527645033695904e+01
316 1 1.16297858637424127e+02
317 1 -4.72808251220921960e+00
318 1 3.89971398566648642e+00
319 1 -1.65107090618749226e+02
320 1 2.23246943254406567e+01
321 1 -2.12969785152970928e+02
322 1 4.62849903991965519e+01
323 1 -7.34611591519630167e+01
324 1 -2.38145382316616804e+02
325 1 5.08564553524281919e+01
326 1 -1.14865521988281060e+02
327 1 6.87041795308762886e+01
328 1 6.31048899797978606e+01
329 1 1.54875217108461012e+01
330 1 4.37705489317255569e+00
331 1 2.60199688473190520e+02
332 1 -3.27209393815349983e+02
333 1 5.11571659628660029e+01
334 1 1.26412713222588721e+02
335 1 -5.26443868704837037e+00
336 1 1.00351406317585273e+02
337 1 -5.72722369050097058e+01
338 1 -7.46562253768561987e+01
339 1 1.92788896394824079e+01
340 1 3.53887168459805139e+02
341 1 1.62449803443158800e+02
342 1 -1.83349553668140288e+03
343 1 2.91129959948996131e+01
344 1 -3.12885870486979378e+01
345 1 3.09571803394476461e+01
346 1 3.20959859935922012e+01
347 1 -3.25743592605508525e+02
348 1 -4.65398245795076321e+02
349 1 -1.91577510057765892e+01
350 1 -2.34938054271966507e+02
351 1 3.09247242770183334e+02
352 1 -2.50502118218077747e+01
353 1 -5.24424079948093791e+01
354 1 2.30638129572141217e+01
355 1 -2.10207409162939626e+02
356 1 1.60110065360560242e+02
357 1 -1.49836238317537536e+01
358 1 7.72735081308146476e+01
359 1 8.65856742251175433e+01
360 1 1.35255316395163248e+02
361 1 -6.30291663454502640e+01
362 1 1.50667901151498904e+03
363 1 2.30359639283159993e+02
364 1 2.65019095826354317e+02
365 1 8.52856671504987105e+01
366 1 6.57349536799399026e+00
367 1 2.63169541612905505e+02
368 1 7.86454276530487704e+01
369 1 8.43928064487482459e+01
370 1 2.37221083874408606e+02
371 1 3.36817355078405072e+01
372 1 2.21392153543234571e+02
373 1 -5.48126509109379683e+01
374 1 -3.87165204791795816e+02
375 1 3.77753935911876908e+02
376 1 2.89024018663466165e+02
377 1 -8.92815605491087609e+01
378 1 1.52238780000242883e+02
379 1 -2.46084354407832748e+01
380 1 -2.11854368028516973e+01
381 1 -2.47462447062096480e+01
382 1 -3.41071513550553149e+01
383 1 -8.37944739269448320e+01
384 1 -2.28842135044875477e+02
385 1 -3.31356952002130711e+01
386 1 4.39194835609980885e+01
387 1 1.05228142753286477e+02
388 1 1.37848337144396368e+02
389 1 4.23991227860991415e-01
390 1 2.20540964041101631e+02
391 1 3.48266144575202077e+02
392 1 5.28439058521631182e+02
393 1 2.76911656265172553e+02
394 1 2.67659301800752246e+02
395 1 4.95371065695352613e+01
396 1 1.11411039801403522e+00
397 1 -2.85629500147651186e+02
398 1 1.82471703911404646e+01
399 1 1.43664550077574319e+02
400 1 -5.26385886562616392e+01
401 1 7.30244773321437606e+02
402 1 -1.04286133708536283e+02
403 1 -1.07165453242677629e+02
404 1 1.87987843559106807e+02
405 1 4.02946550381752004e+01
406 1 -3.71024667310702569e+02
407 1 4.41528843334208716e+02
408 1 1.00605084268487280e+03
409 1 5.20174528450242590e+01
410 1 -6.54769723384228882e+02
411 1 4.00406748691313624e+02
412 1 1.55624247475265406e+02
413 1 4.23673981503392483e+01
414 1 -8.28354051220423493e+00
415 1 4.34610943542100131e+02
416 1 -5.01231232632143588e+02
417 1 5.99716209197776834e+02
418 1 -4.79201531439454016e+02
419 1 -4.55142100607197904e+02
420 1 -4.20854668408083512e+01
421 1 -1.06542046933647931e+01
422 1 5.65257659534265073e+01
423 1 2.96194828905069869e+01
424 1 2.55645866639198857e+02
425 1 9.55367315333596281e+01
426 1 1.36408929021259837e+02
427 1 7.83518548027048070e+01
428 1 -6.98256292611566920e+01
429 1 3.68464120180349255e+01
430 1 4.48942002281712718e+01
431 1 1.79998300013233923e+01
432 1 2.19861737653114524e+01
433 1 5.44390859727640546e+01
434 1 -9.46919832715078655e+02
435 1 6.89557902632019761e+01
436 1 5.42764719029913749e+01
437 1 5.54969193674594479e+01
438 1 -1.77644700852516735e+01
439 1 3.45137548678426214e+01
440 1 1.59002525711433158e+01
441 1 1.82058600289135732e+01
442 1 1.90249600990952388e+01
443 1 3.34104625301838496e+01
444 1 8.52585677370626343e+01
445 1 5.23951195919959076e+01
446 1 4.23469407735059562e+01
447 1 5.85905731889207786e+01
448 1 3.87049796442657978e+01
449 1 9.81056973095092872e+02
450 1 1.34831196652396397e+01
451 1 7.76287568254725556e+02
452 1 2.17722175557920224e+02
453 1 2.89946603821902329e+02
454 1 5.58268720448381650e+00
455 1 3.66947108952934400e+02
456 1 -1.25334989367559331e+01
457 1 -1.13788419443488209e+02
458 1 3.07375221453259151e+01
459 1 1.34175501183191898e+02
460 1 2.74452440406096514e+01
461 1 3.88156152200945712e+01
462 1 -1.36099407659860753e+03
463 1 1.70738460479195808e+01
464 1 1.98858776261854189e+02
465 1 4.43051095612903651e+01
466 1 -6.34554248924491588e+01
467 1 -2.84069108589542587e+01
468 1 -5.69000005723870800e+02
469 1 -2.76306512931421935e+02
470 1 -1.18236284116965564e+02
471 1 -7.04356281064159930e+02
472 1 3.03978623402153119e+02
473 1 -8.49398682392798719e+02
474 1 -1.62531823047239214e+02
475 1 1.48728244901636124e+01
476 1 1.65727234865906148e+00
477 1 7.25549148069442396e+00
478 1 -4.22898172793071794e+01
479 1 -1.49495210434345097e+02
480 1 -1.01138905431487913e+00
481 1 2.53613694255344377e+01
482 1 -2.29193578276718881e+03
483 1 -7.24256464480313639e+02
484 1 -8.54495555142354647e+02
485 1 2.23728306697045014e+02
486 1 3.68997268966593197e+02
487 1 2.93628498451167900e+02
488 1 4.53663453938548457e+02
489 1 7.41396918274558516e+02
490 1 -5.86027417071621016e+02
491 1 3.09597787561925713e+02
492 1 1.45661718433707620e+02
493 1 1.95320886616549274e+02
494 1 4.05787820855559346e+02
495 1 -4.43049786191382464e+03
496 1 1.03323944271201094e+03
497 1 -1.64798099027448916e+03
498 1 2.16486888362055765e+02
499 1 -1.05806328049295615e+02
500 1 2.26066763995960400e+02
501 1 8.08483443693656483e+01
502 1 1.48023232086041759e+02
503 1 3.39560363605321754e+02
504 1 3.04691720262969341e+02
505 1 1.44095295809092113e+03
506 1 3.34041323119928109e+02
507 1 -1.73628009679459154e+01
508 1 2.67695388754639453e+02
509 1 -3.22562566371448497e+02
510 1 -1.23896396548583198e+03
511 1 -3.22725620998429520e+02
512 1 -5.21300460983927465e+01
513 1 -5.37659436781219497e+01
514 1 -3.25805233474487693e+02
515 1 4.45707806773890809e+02
516 1 3.92991444997547887e+01
517 1 1.79456993061709262e+01
518 1 2.44214222246324439e+01
519 1 3.30622292492192926e+01
520 1 3.80735226356635650e+01
521 1 9.14118654876586945e+00
522 1 -4.19155368473655372e+01
523 1 7.53786418629483563e+01
524 1 1.21341009394724431e+01
525 1 6.55036776184932990e+01
526 1 6.28239825857626002e+01
527 1 6.17519459331564207e+01
528 1 5.01030354689287805e+01
529 1 4.49233500520018509e+01
530 1 4.31193624072118880e+01
531 1 3.63524513827433822e+01
532 1 4.71233839979087890e+01
533 1 3.02485176354454985e+01
534 1 3.53161458978601672e+01
535 1 5.70427372707015792e+01
536 1 1.87415566461307712e+01
537 1 6.04444224198159574e+01
538 1 3.40095696061499666e+01
539 1 5.29103331713023636e+02
540 1 1.75622521865634468e+02
541 1 -2.40328464352270288e+02
542 1 -1.60489486413824807e+02
543 1 1.30368681902553163e+02
544 1 6.56382346397136587e+01
545 1 8.51685139047562387e+01
546 1 3.13362800846044749e+01
547 1 1.15895027172909067e+03
548 1 5.77347406373448013e+00
549 1 3.30347875404621902e+02
550 1 1.11756614166292152e+02
551 1 4.52199296613231638e+01
552 1 2.50394312456828203e+01
553 1 4.72770729441945079e+01
554 1 2.98815123854809670e+01
555 1 1.11166555178866204e+02
556 1 3.54102093381382474e+02
557 1 -8.11536633173914197e+02
558 1 6.01545312867051507e+02
559 1 3.49217391950816079e+02
560 1 -9.07047155646552483e+02
561 1 2.09040002702022861e+02
562 1 -3.77896909422028443e+02
563 1 5.05189555236827118e+02
564 1 6.12068466049532390e+02
565 1 5.92995893154964165e+02
566 1 5.45965204985511491e+02
567 1 4.64512002424381308e+02
568 1 -1.22797767791127335e+01
569 1 3.17379405071842143e+02
570 1 -2.02623927416461981e+02
571 1 4.01301972372578632e+02
572 1 -1.62051791360849165e+03
573 1 3.37066128349870951e+02
574 1 -8.09496042223946404e+01
575 1 -7.05742151550711583e+02
576 1 2.46949820667202431e+02
577 1 -1.09645999430371273e+01
578 1 -9.41772234246348261e-01
579 1 4.93040099839146933e+02
580 1 -1.60835714348132058e+02
581 1 5.11509546302978606e+02
582 1 -1.32739331071184301e+03
583 1 -3.49558330471686745e+01
584 1 5.15420282548102023e+02
585 1 1.40214128270589867e+02
586 1 1.11668004004724168e+02
587 1 8.65909157256201752e+02
588 1 3.37854524098413549e+02
589 1 1.19982865651181001e+02
590 1 1.78548294946853616e+02
591 1 -3.20488117826774115e+01
592 1 3.41657613782446106e+01
593 1 1.54102243437396027e+02
594 1 1.97727165438475197e+02
595 1 -2.63079570349712704e+01
596 1 -2.44732403929186013e+01
597 1 2.51744515240559338e+02
598 1 2.22067068371789361e+02
599 1 -2.05156424241048171e+02
600 1 5.30146037502865184e+01
601 1 -8.50261727167304429e+01
602 1 -1.71736262989619526e+01
603 1 1.09634230127287466e+02
604 1 4.34877538298020383e+01
605 1 5.90567392189795370e+00
606 1 2.37126726206561784e+01
607 1 7.20522768633568589e+00
608 1 -3.02353529293817900e+01
609 1 1.97714807862066522e+01
610 1 5.71013630752597550e+01
611 1 2.14548442274215070e+01
612 1 -3.04760996110744600e+02
613 1 2.29609184834585619e+02
614 1 1.29284885953932388e+02
615 1 9.03102057293465634e+01
616 1 -1.71891013584769240e+02
617 1 -6.13758710284822769e+02
618 1 7.30454473888627263e+01
619 1 -8.81217584091894679e+01
620 1 -2.69569422993137607e+02
621 1 1.08467536473403001e+02
622 1 5.48574713589260455e+02
623 1 -5.27718257334961777e+02
624 1 -3.86071214848857664e+02
625 1 -6.05500488965845278e+01
626 1 -2.95830509402540520e+03
627 1 -2.96529198537488412e+02
628 1 -5.25915469651261560e+02
629 1 1.70724598494342740e+03
630 1 -1.70766494706778560e+00
631 1 7.25810577887346653e+02
632 1 1.87012742825461629e+02
633 1 -6.94500051384507628e+02
634 1 -2.96090808694782652e+02
635 1 2.67287732750756732e+02
636 1 -2.91262741439783667e+02
637 1 -2.34629626795107441e+02
638 1 -1.86263232481335081e+03
639 1 -1.50538196532633624e+01
640 1 4.68314437410651649e+01
641 1 -8.95659851834860092e+02
642 1 4.16999343827316977e+02
643 1 -2.46724192866125982e+01
644 1 1.99732662035522623e+02
645 1 1.11496123972059377e+03
646 1 1.75815557022390891e+02
647 1 3.89726733858919033e+02
648 1 7.12065677851462397e+02
649 1 -1.40280360686445624e+03
650 1 4.39570422662577755e+02
651 1 -5.47262988869635549e+01
652 1 -2.43100443187866802e+02
653 1 -2.58745224163455916e+01
654 1 -1.88323783818700213e+03
655 1 -6.43461236620906476e+01
656 1 7.39336115804684724e+00
657 1 4.19818911586129229e+00
658 1 6.22270150075578155e+00
659 1 -4.72421749791111734e-01
660 1 -1.90837206762594747e+01
661 1 7.79238390197363913e+01
662 1 8.26763980527181985e+01
663 1 7.97621037727376319e+01
664 1 -1.29998919447916876e+02
665 1 5.00844940461097821e+01
666 1 3.38156713983274813e+01
667 1 2.59246393412639655e+01
668 1 1.04447782041838366e+02
669 1 2.89824140941752091e+02
670 1 -4.87345534231971769e+01
671 1 -1.05724555037902951e+03
672 1 -1.40163865041105879e+02
673 1 -4.23584928961018534e+02
674 1 1.52351698684157185e+02
675 1 -1.41167072385053871e+02
676 1 -1.51810798606759164e+02
677 1 6.53222756802800404e+02
678 1 1.10661815061226662e+02
679 1 1.06654978190450402e+03
680 1 -1.01175798178067495e+02
681 1 -5.66806232864041931e+02
682 1 -1.38572409742057812e+03
683 1 -3.98427425364619978e+02
684 1 -7.73462888996567273e+01
685 1 -1.62905582521663291e+02
686 1 4.22337951743811431e+01
687 1 -7.07029516953986672e+02
688 1 7.36704148654313258e+01
689 1 -1.46082374688380241e+02
690 1 -1.46471686580922579e+02
691 1 -3.12210140627095427e+02
692 1 -1.18673259406104421e+02
693 1 9.14880678837645434e+00
694 1 6.93849500978992069e+01
695 1 1.57971890942481139e+02
696 1 -5.25178394137234477e+02
697 1 -4.91540928828003814e+02
698 1 -6.45056262352266913e+02
699 1 8.41824801478907574e+01
700 1 -4.21376365640249617e+02
701 1 7.94828538249923611e+01
702 1 7.55692414005812907e+01
703 1 1.95124681907680497e+02
704 1 1.98579935198450279e+01
705 1 -1.35604194483778656e+02
706 1 -1.83464688596636421e+02
707 1 -7.88004154139830121e+02
708 1 5.54969055695386757e+01
709 1 2.10376897677498988e+02
710 1 -9.96501988950514885e+01
711 1 -1.62551821388177359e+02
712 1 -2.41254642901993930e+03
713 1 3.04108309213779762e+02
714 1 1.85386654466779191e+02
715 1 9.34617309505690912e+01
716 1 -1.22076277451627362e+02
717 1 -1.07050017265980259e+02
718 1 -4.24505950757807682e+01
719 1 2.46939870413471283e+01
720 1 -1.12141613802097609e+02
721 1 -7.18782432265581690e+01
722 1 -3.51600037292337504e+01
723 1 -5.24410350063420907e+01
724 1 -3.99041053067607550e+01
725 1 -7.62973029414660004e+01
726 1 -5.68991663416612994e+01
727 1 -9.78751496172436397e-01
728 1 -9.62858444374989375e+01
729 1 2.11304719139129389e+02
730 1 -3.67941050273369228e+02
731 1 4.81196898574490461e+01
732 1 -1.41907154729427560e+02
733 1 -8.11658712234078052e+01
734 1 -4.80542223967748257e+01
735 1 -6.27234096880466367e+01
736 1 3.13961517135493978e+02
737 1 1.16445627948026868e+02
738 1 1.76695648142436085e+02
739 1 4.63840728137657436e+02
740 1 2.96860608730223532e+02
741 1 -2.41157080618844390e+02
742 1 -8.92749938439845607e+01
743 1 -2.23799128456638208e+01
744 1 -6.98703217682288766e+01
745 1 7.00926806692390247e+00
746 1 1.02297718185561539e+01
747 1 3.32186890678577598e+01
748 1 6.53859939033328885e+01
749 1 -3.47205392888262622e+02
750 1 6.68873875195017433e+01
751 1 1.54043290642508822e+02
752 1 4.35199705055031814e+01
753 1 9.39871011300074315e+01
754 1 1.08626750519625801e+02
755 1 4.57405115678968315e+01
756 1 2.15540648176308238e+01
757 1 -1.87942156972050697e+02
758 1 -1.67269296875981972e+01
759 1 2.07961676682303747e+01
760 1 -5.58356712310284024e+02
761 1 -2.00058878692189523e+01
762 1 2.00336225741811731e+01
763 1 1.15198598231675476e+02
764 1 1.14793236676001413e+02
765 1 2.78686454917631288e+01
766 1 6.33659454627992659e+02
767 1 -6.48003552227361070e+02
768 1 -6.35312427091588390e+01
769 1 -1.05377247591903867e+02
770 1 -1.85025222195576049e+02
771 1 -5.18329805874692227e+01
772 1 -5.60582145265066814e+01
773 1 -1.74236753605867669e+01
774 1 2.28021650743072719e+01
775 1 6.32518610794833052e+01
776 1 -9.89869539511480752e+02
777 1 -2.17215455480012253e+02
778 1 7.37662560241970908e+01
779 1 5.39673247372177656e+01
780 1 -8.03137675739946530e+01
781 1 -1.21753441549428146e+02
782 1 -1.43674955261255718e+02
783 1 -5.42306774756389359e+02
784 1 8.45759775713808381e+02
785 1 2.20546841567000733e+01
786 1 -2.53822881811017822e+02
787 1 8.62612477117094159e+01
788 1 -2.88157608051568104e+02
789 1 -9.99312564051642482e+01
790 1 -4.25418500504077670e+01
791 1 -7.34275930892172028e+02
792 1 -7.41259399906873227e+02
793 1 3.85710145061388118e+02
794 1 2.16493818925019923e+03
795 1 -8.98656367147703037e+01
796 1 -4.81874238617809056e+02
797 1 9.23565224208867335e+02
798 1 -9.81419094582479147e+02
799 1 -7.12770307613584919e+02
800 1 -3.88409709978174760e+02
801 1 -6.51264544405287666e+02
802 1 -5.00620129634055559e+02
803 1 -4.02358151008165294e+02
804 1 6.24519625700888582e+02
805 1 2.20029409334294485e+02
806 1 9.73729900421260936e+02
807 1 -3.16218448700837712e+02
808 1 2.43297900009098697e+02
809 1 2.09940093825491630e+02
810 1 1.18818824061822966e+03
811 1 3.22385661688061191e+02
812 1 -8.36226504770953397e+02
813 1 2.40916947298789097e+02
814 1 1.04574223913166833e+02
815 1 1.43059210165493255e+02
816 1 6.04431928438429850e+02
817 1 9.81738347916194130e+02
818 1 -1.63277389655373611e+02
819 1 -3.72571184198271681e+02
820 1 -2.10405509816289111e+02
821 1 -2.78576359763730181e+02
822 1 2.64049088516680229e+02
823 1 -1.02471629883456373e+02
824 1 -1.94078774797868533e+02
825 1 -2.04993524248849837e+02
826 1 -9.73810210282016442e+02
827 1 -8.91991996170498055e+02
828 1 4.59579019856182470e+02
829 1 3.60675548174698463e+02
830 1 1.11964990043798161e+03
831 1 3.54647675399241322e+01
832 1 -1.28670927158681820e+01
833 1 1.37200827194433998e+02
834 1 6.76350911785569764e+01
835 1 -1.07003386467288962e+02
836 1 -2.15447854369805867e+02
837 1 -1.59637717256091719e+02
838 1 1.82120882669042658e+02
839 1 1.45035437103946009e+02
840 1 6.44934840445441324e+01
841 1 -1.41043735655780935e+01
842 1 2.30657840126305103e+02
843 1 -3.37267550735541192e+02
844 1 -3.03167875971551695e+01
845 1 4.37992988457614331e+02
846 1 -2.11152140455604808e+02
847 1 -3.38100857312497737e+02
848 1 3.60764475900874970e+02
849 1 1.46744941475996370e+02
850 1 2.67319773986953528e+01
851 1 2.21836286502697675e+02
852 1 1.81479233324618917e+02
853 1 9.13406803578110669e+01
854 1 2.92334030568620221e+02
855 1 4.40063024362144404e+02
856 1 3.65500390661966492e+02
857 1 4.22377084159585763e+02
858 1 -2.14401403629336578e+01
859 1 -2.12346948910826470e+01
860 1 -1.56960854143344818e+03
861 1 -8.21656163084950322e+02
862 1 3.77566031464224977e+02
863 1 2.84735435989393352e+02
864 1 6.10447884274162448e+02
865 1 4.17159849518853946e+02
866 1 1.97685959333858818e+02
867 1 4.61439966789890434e+02
868 1 9.27197272129623002e+02
869 1 -1.47897768382969730e+02
870 1 1.27915199136480879e+02
871 1 -4.67311351194209266e+01
872 1 1.23339613067779901e+01
873 1 9.53093496940273042e+01
874 1 8.97703157115519161e+01
875 1 7.97040845541417411e+02
876 1 -7.42664434407542018e+01
877 1 -2.33890010037430415e+02
878 1 2.37023496758833772e+02
879 1 -2.39489551935675166e+02
880 1 -1.86023401679736310e+02
881 1 -6.29871139457836193e+00
882 1 -4.95609710717114993e+01
883 1 -1.35032531717048954e+02
884 1 6.34663668884259025e+01
885 1 2.01217016705145483e+02
886 1 8.90149364759045625e+01
887 1 -6.63554922138795291e+01
888 1 -1.59969644369193077e+02
889 1 -1.80764677186501714e+01
890 1 1.99810370028873450e+02
891 1 1.62848691541535828e+02
892 1 -7.47522788609981692e+00
893 1 8.19911761701263941e+01
894 1 9.27993633795614059e-01
895 1 1.40835804925234953e+02
896 1 -2.58807466737668676e+02
897 1 4.05586156423794421e+02
898 1 1.58580168879037330e+02
899 1 -6.58789371080831376e+00
900 1 9.65124781792401677e+02
901 1 1.02042240864350345e+03
902 1 5.36315219396701536e+02
903 1 5.03629765160732248e+01
904 1 5.43111022719809782e+01
905 1 -1.36791150955417692e+02
906 1 -2.55837299629059032e+02
907 1 9.78911458096156480e+02
908 1 -6.55397664152870050e+01
909 1 4.55534727124042604e+02
910 1 1.28732282623474004e+00
911 1 6.50557271076102808e+01
912 1 -1.80246180348034773e+03
913 1 -5.48332058500572543e+02
914 1 -5.01930325397317233e+02
915 1 1.27211934070884195e+03
916 1 1.17506521347990747e+03
917 1 1.63127646207994394e+03
918 1 -1.87588577733630295e+01
919 1 3.19941052504887544e+01
920 1 1.54966200177910736e+01
921 1 -1.47028128819642490e+01
922 1 -1.03629098864548936e+01
923 1 1.35674836464105198e+02
924 1 1.07244865175089515e+02
925 1 1.05220206000990956e+02
926 1 2.01033394827234019e+02
927 1 1.66206098151828684e+02
928 1 1.87919689551406776e+02
929 1 4.59599719538392947e+02
930 1 1.18656083592788036e+03
931 1 2.39820816782526151e+02
932 1 2.55125299109783356e+02
933 1 -1.20921683564506580e+02
934 1 -5.95179825921282841e+01
935 1 -1.61765398894743299e+02
936 1 1.31313429829866184e+01
937 1 -2.64629341148261972e+02
938 1 -1.65698795970700729e+02
939 1 -6.35206432282615339e+01
940 1 5.12437135542551346e+02
941 1 9.40991813325608859e+02
942 1 2.27384789232870901e+01
943 1 8.14142454663145685e+01
944 1 -4.48167272615216461e+02
945 1 -8.28709545655004376e+02
946 1 -2.05290296054265355e+02
947 1 -1.12106255806878110e+01
948 1 -2.79151523847726821e+02
949 1 -2.70531913860146631e+02
950 1 -6.04790518133106843e+02
951 1 2.66647832153005652e+02
952 1 4.31623809663838244e+02
953 1 3.55491240875076642e+01
954 1 -2.54701349932133638e+01
955 1 3.15281091216816890e+02
956 1 1.37821722282561097e+02
957 1 2.57855637249663118e+02
958 1 1.24402032184135805e+03
959 1 3.56065007907823826e+02
960 1 -5.99741835608698580e+02
961 1 5.76627447538885690e+02
962 1 -6.50162803196404866e+01
963 1 2.93972261061952054e+02
964 1 -1.51937485041792934e+03
965 1 2.00612256498693512e+02
966 1 -1.02006827620864362e+03
967 1 2.65148410509307382e+02
968 1 -6.51151154224906836e+00
969 1 2.56017696153113206e+02
970 1 9.86726305391859910e+02
971 1 -3.91819152513367362e+03
972 1 2.33693452817408662e+01
973 1 1.09654919948005826e+02
974 1 -2.04283096164532452e+02
975 1 1.83382558057917913e+03
976 1 2.21597411096880109e+02
977 1 -4.46367632984952706e+02
978 1 1.68222670107518013e+01
979 1 4.30537082518471095e+02
980 1 -8.58515673223935210e+01
981 1 7.48245898054984423e+02
982 1 -9.35322167423942346e+02
983 1 -1.05710252278098167e+02
984 1 9.44488675138178380e+00
985 1 5.52393709148593146e+01
986 1 2.71754166110989388e+01
987 1 2.04235994152353697e+02
988 1 -2.04358186014487671e+02
989 1 8.60803293638080845e+02
990 1 -9.70352468610589540e+02
991 1 -1.20002354055495766e+03
992 1 -3.54723556362141323e+02
993 1 -2.76634594033780502e+02
994 1 1.30455710048190774e+01
995 1 2.66854402385095923e+00
996 1 2.34762499677965337e+02
997 1 1.10229835874424836e+02
998 1 5.80396957655554218e+01
999 1 5.38797895062493311e+01
1000 1 1.15924313842252886e+02
1001 1 1.46080713696840320e+02
1002 1 3.19988251147828692e+02
1003 1 1.57577608270530334e+02
1004 1 -7.74256958142511138e+01
1005 1 1.59556413430753628e+03
1006 1 5.12493355532485680e+02
1007 1 2.26849543906142600e+02
1008 1 6.43584179205329065e+02
1009 1 7.71147888282989129e+02
1010 1 -1.27782019245348511e+03
1011 1 -6.98933038111776796e+02
1012 1 -9.33954627431368465e+01
1013 1 1.83452670374489657e+02
1014 1 -8.25761477136641844e+01
1015 1 -8.84946242660438287e+01
1016 1 2.80706509311283980e+02
1017 1 1.74222445514982041e+03
1018 1 -5.90470690589480682e+01
1019 1 1.40672734003922073e+02
1020 1 -4.72153633888687807e+02
1021 1 3.97134652014880430e+02
1022 1 2.25255935162709022e+02
1023 1 -1.48507190076172333e+03
1024 1 1.76322468656872161e+02
1025 1 2.45799515473847450e+01
1026 1 1.01899691453016555e+03
1027 1 -1.11605774356693829e+02
1028 1 -7.67737680950101208e+02
1029 1 -3.05322701095569414e+02
1030 1 -2.49240842966519085e+03
1031 1 7.13060837946130164e+01
1032 1 -1.86665805157977303e+02
1033 1 7.43455230789041934e+01
1034 1 -1.36419304456093897e+02
1035 1 -5.07759088773022498e+01
1036 1 -1.00509508956813841e+03
1037 1 4.82473612104551421e+02
1038 1 -1.64561441300638990e+02
1039 1 -9.71361338349271477e+02
1040 1 -3.20894994510396998e+02
