%%MatrixMarket matrix coordinate real general
104 2 208
1 1 -78.97499999999998
2 1 -78.97499999999998
3 1 -85.275
4 1 -85.275
5 1 -85.12147299999998
6 1 -84.88177699999999
7 1 -84.535873
8 1 -84.451705
9 1 -84.34446
10 1 -84.361962
11 1 -84.33428
12 1 -84.23701399999997
13 1 -84.15727799999999
14 1 -84.02427399999999
15 1 -83.92536399999999
16 1 -83.68079099999999
17 1 -83.586836
18 1 -83.54248500000001
19 1 -83.406437
20 1 -83.395742
21 1 -83.280229
22 1 -83.218075
23 1 -83.16457799999998
24 1 -83.07726499999998
25 1 -83.05654199999998
26 1 -82.99857899999999
27 1 -82.83421600000001
28 1 -82.763751
29 1 -82.76405499999998
30 1 -82.68886399999998
31 1 -82.738695
32 1 -82.715027
33 1 -82.655132
34 1 -82.66988199999999
35 1 -82.73146099999998
36 1 -82.792986
37 1 -82.85216799999999
38 1 -82.738022
39 1 -82.63981999999997
40 1 -82.58762499999999
41 1 -82.638423
42 1 -82.72060799999998
43 1 -82.67557199999999
44 1 -82.41531799999998
45 1 -82.39190100000002
46 1 -82.514265
47 1 -82.641346
48 1 -82.70782099999997
49 1 -82.522032
50 1 -82.445718
51 1 -82.249888
52 1 -82.145071
53 1 -82.181198
54 1 -82.11547800000001
55 1 -82.051105
56 1 -82.091355
57 1 -82.14255399999999
58 1 -82.10062499999998
59 1 -82.00589900000001
60 1 -81.868983
61 1 -81.833142
62 1 -81.80174799999999
63 1 -81.68953999999998
64 1 -81.642345
65 1 -81.41504
66 1 -81.290328
67 1 -81.27148900000002
68 1 -81.16796999999998
69 1 -81.12140999999998
70 1 -81.172044
71 1 -81.08393
72 1 -80.900577
73 1 -80.868151
74 1 -80.722391
75 1 -80.582083
76 1 -80.465501
77 1 -80.461342
78 1 -80.39971699999998
79 1 -80.25301499999999
80 1 -80.31035999999999
81 1 -80.340026
82 1 -80.237858
83 1 -80.12100799999999
84 1 -80.108775
85 1 -80.03615800000001
86 1 -80.031362
87 1 -80.09390900000001
88 1 -80.261462
89 1 -80.384408
90 1 -80.530964
91 1 -80.59416399999999
92 1 -80.606823
93 1 -80.58903
94 1 -80.525094
95 1 -80.57424000000002
96 1 -80.709725
97 1 -80.96617599999999
98 1 -81.163581
99 1 -81.253877
100 1 -81.30897800000001
101 1 -81.39620300000001
102 1 -81.39346899999998
103 1 -81.435829
104 1 -81.42844977912038
1 2 30.655
2 2 23.30499999999999
3 2 23.30499999999999
4 2 29.69238220883236
5 2 29.715854
6 2 29.73388199999999
7 2 29.91009199999999
8 2 29.929085000000004
9 2 29.899024999999998
10 2 29.98773900000001
11 2 30.037079999999996
12 2 30.08556
13 2 30.072714000000005
14 2 30.103270999999992
15 2 30.034567999999986
16 2 29.921573999999985
17 2 29.818941000000002
18 2 29.728152000000005
19 2 29.650325000000002
20 2 29.526314
21 2 29.433412999999998
22 2 29.420492
23 2 29.296822999999993
24 2 29.255330999999998
25 2 29.12990899999999
26 2 29.174124000000003
27 2 29.154919999999983
28 2 29.054518
29 2 28.999707000000015
30 2 28.905608999999988
31 2 28.824795999999996
32 2 28.72697099999999
33 2 28.674851999999998
34 2 28.433054999999992
35 2 28.32501499999999
36 2 28.00649099999998
37 2 27.885971999999985
38 2 27.706807
39 2 27.703906999999997
40 2 27.81900999999999
41 2 27.904629999999994
42 2 27.936155999999997
43 2 28.00544199999999
44 2 27.900378
45 2 27.823856999999997
46 2 27.705588000000002
47 2 27.525508000000006
48 2 27.48761499999999
49 2 27.228374999999986
50 2 27.060633999999983
51 2 26.762945999999996
52 2 26.788833999999994
53 2 26.921363
54 2 26.951132
55 2 26.864954999999995
56 2 26.666770999999986
57 2 26.643910999999992
58 2 26.510763999999998
59 2 26.534412999999997
60 2 26.378647999999984
61 2 26.294517999999997
62 2 26.091405
63 2 25.85271
64 2 25.905431000000004
65 2 25.78435
66 2 25.687505999999992
67 2 25.614339999999984
68 2 25.46948900000001
69 2 25.338749999999994
70 2 25.222276
71 2 25.10619399999999
72 2 25.139669
73 2 25.175953
74 2 25.15954699999999
75 2 25.21068
76 2 25.21175499999999
77 2 25.132487
78 2 25.108491999999995
79 2 25.340493999999996
80 2 25.373100000000004
81 2 25.467887999999988
82 2 25.727228000000007
83 2 25.813198999999987
84 2 26.090087999999998
85 2 26.60258600000001
86 2 26.796339000000003
87 2 27.018586999999997
88 2 27.394352999999988
89 2 27.741190999999993
90 2 28.01365599999999
91 2 28.195863999999997
92 2 28.29640399999999
93 2 28.407871999999998
94 2 28.459454
95 2 28.585338999999994
96 2 28.75669199999999
97 2 29.147959999999994
98 2 29.555289999999996
99 2 29.776852
100 2 29.96943999999998
101 2 30.331085999999992
102 2 30.395553000000003
103 2 30.526070999999995
104 2 30.655
