%%MatrixMarket matrix coordinate real general
% generated from locs.csv (X,Y)
266 2 532
1 1 12.4665091187847
2 1 12.5483287300564
3 1 12.4011692851598
4 1 12.3369488519464
5 1 12.3060177640152
6 1 12.3047390169693
7 1 12.3580103159005
8 1 12.4019604996061
9 1 12.5894189824772
10 1 12.7560273315521
11 1 12.9063217973796
12 1 13.1016070603669
13 1 13.1838559730596
14 1 13.2526696133605
15 1 13.351624468746
16 1 13.4334776299413
17 1 13.6254892590629
18 1 13.7538226565618
19 1 13.7755635950321
20 1 13.8513216633637
21 1 13.91806601965
22 1 13.8337694021818
23 1 13.7962964368786
24 1 13.6694004435771
25 1 13.5953732092659
26 1 13.5758690161593
27 1 13.637611291423
28 1 13.5934794629324
29 1 13.5278131611238
30 1 13.4769755186716
31 1 13.4980857550562
32 1 13.6438945340985
33 1 13.6632032999803
34 1 13.5650907979615
35 1 13.5290561346402
36 1 13.4224830271448
37 1 13.3918725812048
38 1 13.4368276721122
39 1 13.566768686709
40 1 13.5922053931799
41 1 13.6896161829898
42 1 13.713851953313
43 1 13.5634968621047
44 1 13.4272676034889
45 1 13.3727504715915
46 1 13.321705680818
47 1 13.1684161584976
48 1 13.0459232639385
49 1 12.6901078223716
50 1 12.5600431496081
51 1 12.3836906218178
52 1 12.2664934282946
53 1 12.2150331153855
54 1 12.1348196106834
55 1 12.1210602016694
56 1 12.2048300383247
57 1 12.1866807159223
58 1 12.0200610216554
59 1 11.9153275191586
60 1 11.8369458955245
61 1 11.7279659316202
62 1 11.6094559914435
63 1 11.5380769316425
64 1 11.4802010838993
65 1 11.4015726090875
66 1 11.3582864949248
67 1 11.1645252044119
68 1 11.1150127257363
69 1 11.0216718250076
70 1 10.813742093985
71 1 10.690586419022
72 1 10.5507225958055
73 1 10.4789377713679
74 1 10.3934553049837
75 1 10.4107545709797
76 1 10.4912498177598
77 1 10.4717042250074
78 1 10.2957488566402
79 1 10.2578775842468
80 1 10.1906283889865
81 1 10.1301717188487
82 1 10.0447308960168
83 1 10.0398111453648
84 1 10.1306732832993
85 1 10.1639410512736
86 1 10.1081225237328
87 1 10.1745305350301
88 1 10.1232875695219
89 1 10.0441320032536
90 1 9.999404754149429
91 1 9.995528237293399
92 1 9.907603614274541
93 1 9.76469640048219
94 1 9.71447073486712
95 1 9.63857663304354
96 1 9.53750092387015
97 1 9.453409510386511
98 1 9.46072009143845
99 1 9.28323474459985
100 1 9.249473858271999
101 1 9.30005009759922
102 1 9.24982722061509
103 1 9.120802174184741
104 1 9.07163492547375
105 1 9.07787243138708
106 1 9.01733719938931
107 1 9.019460378802201
108 1 9.088212004585211
109 1 8.99791578701989
110 1 8.94953746092534
111 1 8.924614585768021
112 1 8.793073113063111
113 1 8.854517056895901
114 1 8.74268748913822
115 1 8.71481518135028
116 1 8.61187265224488
117 1 8.532583007500509
118 1 8.46921785780056
119 1 8.42752235939834
120 1 8.465450940253801
121 1 8.46588126353392
122 1 8.44549436229094
123 1 8.30703806303767
124 1 8.311948088102019
125 1 8.13770892900747
126 1 8.08132587448341
127 1 8.139003323537519
128 1 8.15346299008365
129 1 8.108024903129429
130 1 8.03420374491764
131 1 8.034022312695519
132 1 7.98869708172567
133 1 7.90924780405532
134 1 7.87287076105589
135 1 7.73455489877146
136 1 7.66810268655349
137 1 7.54736305683446
138 1 7.38179670727254
139 1 7.29071029299065
140 1 7.1182716025759
141 1 7.04468985326543
142 1 6.98921993916586
143 1 6.80442669796791
144 1 6.80918691485319
145 1 6.9320039719203
146 1 6.96856687796303
147 1 6.99968771296081
148 1 7.10432952311263
149 1 7.18377718229405
150 1 7.11080588733565
151 1 7.13709087038754
152 1 6.96575642034875
153 1 6.9549300337527
154 1 6.84832428811479
155 1 6.76915683184795
156 1 6.68020827370634
157 1 6.6266214180328
158 1 6.67544704189947
159 1 6.74321799440189
160 1 6.76506151123029
161 1 6.7508371157408
162 1 6.8629425564623
163 1 6.93155495138414
164 1 7.00608613358737
165 1 7.00007931334232
166 1 7.07593757547201
167 1 6.98711551011773
168 1 6.94793613325846
169 1 6.93258952204008
170 1 6.85661086427053
171 1 6.89615134301384
172 1 6.99669543039481
173 1 7.35547623720818
174 1 7.45995894248233
175 1 7.56727570798818
176 1 7.67050148933977
177 1 7.71283794591046
178 1 7.65163712320359
179 1 7.57459512253233
180 1 7.56076801525607
181 1 7.49557338789157
182 1 7.51810430757754
183 1 7.67406432839098
184 1 7.80463456374518
185 1 7.94605844570994
186 1 8.068365064876
187 1 8.169231879093671
188 1 8.167750329037069
189 1 8.22568317879584
190 1 8.268998603389999
191 1 8.42224992297937
192 1 8.44821357915295
193 1 8.50874174983448
194 1 8.741320374171741
195 1 9.140383867137521
196 1 9.147256050790331
197 1 9.2084247207067
198 1 9.245744633650551
199 1 9.3538732351821
200 1 9.40598222204334
201 1 9.494403190371701
202 1 9.56671414882412
203 1 9.717681714818459
204 1 9.76077882831744
205 1 9.90245276183694
206 1 9.963726170058569
207 1 10.0624411805922
208 1 10.0021276170079
209 1 9.96646590344114
210 1 9.85702737554422
211 1 9.85152700016102
212 1 9.72945517703846
213 1 9.70175670900835
214 1 9.827717215090781
215 1 9.970712552532669
216 1 9.99024752225866
217 1 10.0996251225494
218 1 10.1431469271392
219 1 10.2538566607365
220 1 10.3743586757747
221 1 10.4307826676763
222 1 10.4929026339752
223 1 10.525121660642
224 1 10.5805042263733
225 1 10.641209777052
226 1 10.743297466758
227 1 10.9182507047052
228 1 10.9934661128499
229 1 11.0902321562633
230 1 11.195928094289
231 1 11.3805451260451
232 1 11.4186587572945
233 1 11.5033713243374
234 1 11.6148393027568
235 1 11.6486547479033
236 1 11.7370405988185
237 1 11.6455490895208
238 1 11.7189113993713
239 1 11.7082517700258
240 1 11.8173736459634
241 1 11.867411373189
242 1 11.9865105231571
243 1 12.0778355602715
244 1 12.1640477492167
245 1 12.2485810022764
246 1 12.3158868509415
247 1 12.3985444404399
248 1 12.4186885736586
249 1 12.4038455771899
250 1 12.514350791412
251 1 12.4868313433064
252 1 12.5658966114931
253 1 12.6288042831026
254 1 12.7223995471574
255 1 12.7506269054553
256 1 12.6897185384765
257 1 12.5744771319126
258 1 12.5294085915389
259 1 12.3923352740308
260 1 12.3678734250307
261 1 12.2892055727343
262 1 12.2819234948781
263 1 12.2401778651663
264 1 12.2483074047846
265 1 12.2914928410913
266 1 12.3981077218541
1 2 44.8437119771478
2 2 44.9742356267723
3 2 45.0420916857034
4 2 45.0982936201917
5 2 45.195315745709
6 2 45.2804458864651
7 2 45.3928503352823
8 2 45.4286670860949
9 2 45.4812495382774
10 2 45.539977150055
11 2 45.6116116435634
12 2 45.6387561790759
13 2 45.7118696317413
14 2 45.7142385074864
15 2 45.6789887642625
16 2 45.6821996496021
17 2 45.7689924416082
18 2 45.6797005915982
19 2 45.5860112606007
20 2 45.5849179279325
21 2 45.6311428040477
22 2 45.6870363787251
23 2 45.742703023159
24 2 45.7996399494454
25 2 45.8082196542324
26 2 45.85486161433
27 2 45.9374569873859
28 2 45.9894931113614
29 2 45.9670588064383
30 2 46.0068396287964
31 2 46.0476487400065
32 2 46.1370788427458
33 2 46.1801180739753
34 2 46.1878132451032
35 2 46.2187462931567
36 2 46.2343906868873
37 2 46.279286535458
38 2 46.3543666140295
39 2 46.3990163118781
40 2 46.4364120292453
41 2 46.440479502895
42 2 46.5230831381509
43 2 46.5512596489436
44 2 46.5576322658018
45 2 46.5793596015485
46 2 46.5522620406772
47 2 46.5888332641975
48 2 46.5953535957145
49 2 46.6559724317266
50 2 46.6526812331482
51 2 46.7165570639119
52 2 46.887141478694
53 2 46.8741910326124
54 2 46.9608448913646
55 2 47.0068721017289
56 2 47.0269560725472
57 2 47.0917837412546
58 2 47.0467601730478
59 2 47.0325484816003
60 2 46.9934682993358
61 2 46.9723283056021
62 2 47.0107877269712
63 2 46.9841080803969
64 2 47.0110072143114
65 2 46.9647178607478
66 2 46.990361686161
67 2 46.9655681889566
68 2 46.9310053721726
69 2 46.7659119540504
70 2 46.7755439807329
71 2 46.8674048097454
72 2 46.8498961708728
73 2 46.8588796717761
74 2 46.6895512030236
75 2 46.635140051732
76 2 46.6113322016427
77 2 46.5426395669415
78 2 46.5504005220037
79 2 46.6108948049292
80 2 46.6260855754382
81 2 46.6055997409266
82 2 46.5364591412527
83 2 46.4457027652724
84 2 46.4318674177678
85 2 46.3908954107905
86 2 46.3521705784877
87 2 46.2546688251621
88 2 46.2237739177906
89 2 46.2296273158372
90 2 46.2831987020732
91 2 46.3419161098712
92 2 46.3805592569705
93 2 46.3378205066345
94 2 46.2929887725993
95 2 46.2863324690102
96 2 46.3092574070205
97 2 46.4205298094312
98 2 46.4989228266861
99 2 46.4969396274636
100 2 46.4311595389212
101 2 46.3265876715291
102 2 46.2404180082093
103 2 46.1346118391927
104 2 46.1195150932817
105 2 46.0653167230874
106 2 46.0501586091087
107 2 45.9306208679103
108 2 45.8970799348015
109 2 45.8229498336994
110 2 45.8434779517375
111 2 45.9058511620373
112 2 46.0079550509246
113 2 46.0616280883307
114 2 46.1221459640006
115 2 46.0980427908335
116 2 46.1214527959948
117 2 46.218059155312
118 2 46.2329383985732
119 2 46.2982653737841
120 2 46.3333951670651
121 2 46.4429043808451
122 2 46.4637053485781
123 2 46.4257188592637
124 2 46.3765566635197
125 2 46.3016128219569
126 2 46.2581992155877
127 2 46.2260774425799
128 2 46.1459411343765
129 2 46.1115753512038
130 2 46.1001930023984
131 2 46.0461092138343
132 2 45.9963235403176
133 2 45.9972128320578
134 2 45.9201494087475
135 2 45.9236515188949
136 2 45.9737216734543
137 2 45.9853460566116
138 2 45.8969054845377
139 2 45.9204564697461
140 2 45.8595393340097
141 2 45.9226757928963
142 2 45.8680872053215
143 2 45.816305599576
144 2 45.7247597519242
145 2 45.6470858208151
146 2 45.6545108101548
147 2 45.5045716821256
148 2 45.466959179766
149 2 45.4074377584469
150 2 45.3161412731383
151 2 45.2560744482754
152 2 45.2077194720885
153 2 45.1811423785853
154 2 45.1273063623854
155 2 45.1598399338996
156 2 45.1404147308975
157 2 45.1042965127997
158 2 45.0193253896185
159 2 45.015913225878
160 2 44.9590743555631
161 2 44.906169047796
162 2 44.8507195850411
163 2 44.8634781284311
164 2 44.839968171568
165 2 44.7890465593086
166 2 44.6832958630382
167 2 44.6895243078571
168 2 44.6547890413418
169 2 44.5728875500453
170 2 44.5340270860425
171 2 44.3719506294673
172 2 44.2500784899263
173 2 44.117144214756
174 2 44.1258573247322
175 2 44.1548304395936
176 2 44.1526394185181
177 2 44.0882474604884
178 2 43.9734155763346
179 2 43.94623703205
180 2 43.8979430942189
181 2 43.8643664865991
182 2 43.8030359788564
183 2 43.7766120271902
184 2 43.8232195051959
185 2 43.846299881574
186 2 43.8891493135198
187 2 43.9523204986167
188 2 43.9997420879321
189 2 44.0431891681654
190 2 44.1392465523744
191 2 44.1925700628227
192 2 44.2855097314897
193 2 44.3283452552319
194 2 44.4265780905423
195 2 44.3612418925952
196 2 44.323026984075
197 2 44.3013001410869
198 2 44.3409018536351
199 2 44.3020810261346
200 2 44.2519365736525
201 2 44.2356835510045
202 2 44.1847194704554
203 2 44.1178493456134
204 2 44.0833490961983
205 2 44.0826689316803
206 2 44.0373829436421
207 2 44.0805018869871
208 2 44.1076514785957
209 2 44.1694324595424
210 2 44.2340298168792
211 2 44.2708617623997
212 2 44.3283305886953
213 2 44.3733654225884
214 2 44.4682755723092
215 2 44.4644400153182
216 2 44.4041067525981
217 2 44.3468385163805
218 2 44.3540996682063
219 2 44.2685809325483
220 2 44.2700211359209
221 2 44.2266451259214
222 2 44.2170001171755
223 2 44.1562359371357
224 2 44.1293739798774
225 2 44.1598351370565
226 2 44.156422793633
227 2 44.0630111702492
228 2 44.1292192763118
229 2 44.0904143013152
230 2 44.1423410133889
231 2 44.2000007622584
232 2 44.2353237086708
233 2 44.1622972771291
234 2 44.1579255920263
235 2 44.0990952633611
236 2 44.0880672689522
237 2 43.9898490082628
238 2 43.9215207704847
239 2 43.8875439552591
240 2 43.8173317701513
241 2 43.8169127794017
242 2 43.7619275924772
243 2 43.7405522723673
244 2 43.762261490074
245 2 43.7515461748488
246 2 43.8056377181818
247 2 43.8263582202131
248 2 43.900657176033
249 2 43.9531063954558
250 2 43.9908595803099
251 2 43.8859691163426
252 2 43.8822433587816
253 2 43.8209490755853
254 2 43.860934894005
255 2 43.9686455922617
256 2 43.9862505697796
257 2 44.079217140276
258 2 44.0952262802193
259 2 44.2130694722059
260 2 44.2494098436947
261 2 44.4631776945294
262 2 44.5965273799381
263 2 44.6917633955571
264 2 44.7627650813921
265 2 44.8411945236713
266 2 44.7927775006591
