%%MatrixMarket matrix coordinate real general
% generated from locs.csv (X,Y)
263 2 526
1 1 7.6782
2 1 7.6953
3 1 8.612
4 1 7.0501
5 1 7.560200000000001
6 1 7.657999999999999
7 1 7.7782
8 1 8.1876
9 1 8.056400000000002
10 1 8.786099999999999
11 1 8.565500000000002
12 1 8.6206
13 1 8.169500000000003
14 1 8.205500000000001
15 1 8.033299999999999
16 1 7.538200000000001
17 1 8.2835
18 1 8.415100000000001
19 1 8.4452
20 1 8.6197
21 1 7.878
22 1 8.623199999999999
23 1 6.835900000000001
24 1 7.625899999999999
25 1 8.402400000000002
26 1 8.1975
27 1 9.052400000000002
28 1 8.3103
29 1 8.2559
30 1 7.2454
31 1 7.837499999999999
32 1 8.415700000000001
33 1 8.159800000000001
34 1 8.0434
35 1 7.711600000000001
36 1 7.8146
37 1 8.458400000000001
38 1 8.2921
39 1 7.6491
40 1 8.6204
41 1 7.685300000000001
42 1 7.324199999999999
43 1 7.7664
44 1 7.3043
45 1 7.329599999999999
46 1 7.321899999999999
47 1 9.191400000000002
48 1 9.1958
49 1 9.327500000000001
50 1 8.892500000000002
51 1 9.198099999999998
52 1 9.1569
53 1 8.736699999999999
54 1 9.556400000000002
55 1 9.235799999999999
56 1 9.2744
57 1 9.503299999999999
58 1 9.2761
59 1 9.6439
60 1 9.5914
61 1 9.556400000000002
62 1 9.6617
63 1 9.611499999999999
64 1 9.466699999999999
65 1 9.614699999999999
66 1 10.2236
67 1 10.2008
68 1 10.3858
69 1 10.3131
70 1 10.1775
71 1 10.2194
72 1 10.2319
73 1 10.8033
74 1 10.6919
75 1 11.2044
76 1 11.0708
77 1 10.7956
78 1 10.7819
79 1 8.8689
80 1 8.905600000000002
81 1 9.1647
82 1 9.1469
83 1 9.009399999999999
84 1 8.7547
85 1 8.845800000000001
86 1 9.395581
87 1 9.4062
88 1 9.3489
89 1 9.4969
90 1 9.399955
91 1 9.083600000000001
92 1 9.1258
93 1 9.222799999999999
94 1 9.705
95 1 9.8642
96 1 10.0167
97 1 10.0458
98 1 9.940300000000001
99 1 8.8345
100 1 8.8203
101 1 9.0242
102 1 8.75
103 1 9.8706
104 1 10.3725
105 1 9.566400000000002
106 1 9.8803
107 1 9.4147
108 1 9.485600000000002
109 1 9.698299999999998
110 1 9.713900000000001
111 1 9.6669
112 1 9.4953
113 1 10.8591
114 1 11.6541
115 1 11.944
116 1 11.34
117 1 11.1616
118 1 11.0394
119 1 11.4539
120 1 10.8445
121 1 11.1262
122 1 10.958
123 1 11.1102
124 1 12.3139
125 1 11.3686
126 1 12.2622
127 1 11.5397
128 1 12.0619
129 1 11.7911
130 1 11.7833
131 1 12.5917
132 1 12.3081
133 1 10.9639
134 1 11.2861
135 1 11.8419
136 1 11.3114
137 1 12.2386
138 1 12.2169
139 1 12.5103
140 1 11.9058
141 1 12.3608
142 1 11.5342
143 1 11.0378
144 1 12.2183
145 1 11.6431
146 1 11.6658
147 1 11.8906
148 1 11.5219
149 1 12.2208
150 1 12.2056
151 1 11.94
152 1 11.9022
153 1 11.5533
154 1 12.2161
155 1 11.0301
156 1 12.2128
157 1 12.3231
158 1 13.5221
159 1 13.5431
160 1 13.4864
161 1 13.5011
162 1 13.4233
163 1 13.7875
164 1 13.855
165 1 13.789
166 1 13.7661
167 1 13.011
168 1 13.4747
169 1 13.2406
170 1 12.5363
171 1 12.6186
172 1 13.3934
173 1 13.2253
174 1 13.0667
175 1 13.5289
176 1 13.6164
177 1 12.9259
178 1 13.2297
179 1 12.5019
180 1 12.6559
181 1 13.5445
182 1 13.7803
183 1 13.7838
184 1 13.2714
185 1 13.302
186 1 13.2621
187 1 8.826000000000001
188 1 8.9274
189 1 8.9915
190 1 8.9468
191 1 8.873800000000003
192 1 8.9682
193 1 8.950100000000001
194 1 8.911899999999999
195 1 9.323600000000001
196 1 9.2226
197 1 8.704599999999999
198 1 9.329499999999999
199 1 8.949
200 1 9.832100000000001
201 1 9.8187
202 1 9.8439
203 1 9.857699999999999
204 1 9.918699999999999
205 1 9.815899999999999
206 1 9.955000000000002
207 1 8.438899999999999
208 1 8.431699999999999
209 1 8.472900000000001
210 1 8.290099999999999
211 1 8.2807
212 1 8.485400000000002
213 1 8.205400000000001
214 1 8.283799999999999
215 1 8.298699999999998
216 1 8.206
217 1 8.280999999999999
218 1 8.41
219 1 7.7727
220 1 8.4773
221 1 11.6131
222 1 9.830299999999999
223 1 10.9047
224 1 12.0564
225 1 10.3317
226 1 11.355
227 1 12.1867
228 1 10.7339
229 1 10.6647
230 1 11.7203
231 1 12.5533
232 1 12.5756
233 1 12.0489
234 1 10.3367
235 1 10.8837
236 1 11.3283
237 1 11.4164
238 1 11.9611
239 1 12.2256
240 1 11.6394
241 1 12.2392
242 1 10.4303
243 1 10.9063
244 1 12.4025
245 1 10.3708
246 1 10.2889
247 1 10.6639
248 1 12.42
249 1 11.2997
250 1 11.6497
251 1 10.8189
252 1 11.178
253 1 9.693300000000001
254 1 12.3322
255 1 9.6692
256 1 12.2247
257 1 10.7914
258 1 9.366899999999999
259 1 11.2861
260 1 10.9261
261 1 10.6228
262 1 12.4017
263 1 11.8734
1 2 45.07580000000001
2 2 45.1041
3 2 44.90659999999999
4 2 45.1391
5 2 45.1758
6 2 45.1546
7 2 45.1432
8 2 45.56900000000001
9 2 45.55879999999999
10 2 45.40970000000001
11 2 45.9303
12 2 45.4383
13 2 44.4122
14 2 44.9089
15 2 44.7037
16 2 44.38179999999999
17 2 45.71319999999999
18 2 45.32840000000001
19 2 45.1361
20 2 45.4403
21 2 45.4512
22 2 44.9203
23 2 45.03479999999999
24 2 45.04189999999999
25 2 45.3189
26 2 44.8942
27 2 44.76330000000002
28 2 44.808
29 2 46.31479999999998
30 2 45.43020000000001
31 2 45.00279999999999
32 2 45.8988
33 2 45.66419999999999
34 2 45.29480000000001
35 2 45.1763
36 2 44.4018
37 2 45.68940000000001
38 2 46.1276
39 2 45.0249
40 2 45.4397
41 2 44.7043
42 2 45.7358
43 2 45.5966
44 2 45.7344
45 2 45.7307
46 2 45.7324
47 2 45.4956
48 2 45.4628
49 2 45.48279999999998
50 2 45.4675
51 2 45.4697
52 2 45.6608
53 2 45.5258
54 2 45.4975
55 2 45.4783
56 2 45.58109999999999
57 2 45.52810000000001
58 2 45.6022
59 2 45.69030000000001
60 2 45.5183
61 2 45.63310000000001
62 2 45.6957
63 2 45.62060000000001
64 2 45.6833
65 2 45.64390000000001
66 2 45.5408
67 2 45.655
68 2 45.6394
69 2 45.5047
70 2 45.8739
71 2 45.5153
72 2 45.5386
73 2 45.14439999999999
74 2 45.4108
75 2 45.05139999999999
76 2 44.99690000000001
77 2 45.1606
78 2 45.16440000000001
79 2 45.06830000000001
80 2 45.1017
81 2 45.1939
82 2 45.18560000000001
83 2 45.0003
84 2 45.28110000000001
85 2 45.30439999999999
86 2 45.8502
87 2 45.69799999999999
88 2 45.8408
89 2 45.91309999999999
90 2 45.86375
91 2 45.8044
92 2 45.7272
93 2 45.80939999999999
94 2 45.36719999999999
95 2 45.2847
96 2 45.1328
97 2 45.1422
98 2 45.14830000000001
99 2 45.58290000000001
100 2 45.8169
101 2 45.62690000000001
102 2 45.6167
103 2 46.1672
104 2 46.4703
105 2 46.1317
106 2 46.1686
107 2 45.3294
108 2 45.3053
109 2 45.15859999999999
110 2 45.082
111 2 45.23500000000001
112 2 45.30279999999999
113 2 46.6195
114 2 46.7149
115 2 46.7974
116 2 46.49550000000001
117 2 46.662
118 2 45.89240000000001
119 2 46.05179999999998
120 2 45.8915
121 2 46.0629
122 2 46.0825
123 2 46.10430000000001
124 2 45.42939999999999
125 2 45.71439999999999
126 2 45.4992
127 2 45.56060000000001
128 2 45.04670000000001
129 2 45.03970000000001
130 2 45.0747
131 2 45.6303
132 2 45.8906
133 2 45.4453
134 2 45.4
135 2 45.3719
136 2 45.18359999999999
137 2 45.67250000000001
138 2 46.1414
139 2 45.83689999999999
140 2 46.0308
141 2 46.1625
142 2 45.5458
143 2 45.59
144 2 45.4903
145 2 45.28999999999999
146 2 45.2267
147 2 45.43330000000001
148 2 45.53189999999999
149 2 45.47559999999999
150 2 45.4383
151 2 45.3775
152 2 45.60029999999999
153 2 45.10389999999999
154 2 45.65880000000001
155 2 45.43300000000001
156 2 46.1438
157 2 45.4356
158 2 45.8052
159 2 45.843
160 2 45.7316
161 2 45.8364
162 2 45.79940000000001
163 2 45.62310000000001
164 2 45.6473
165 2 45.6544
166 2 45.6405
167 2 46.40189999999998
168 2 46.5101
169 2 46.0661
170 2 45.8987
171 2 45.95779999999999
172 2 45.9733
173 2 46.035
174 2 46.22079999999999
175 2 45.81
176 2 45.9369
177 2 45.85689999999999
178 2 46.07079999999999
179 2 45.9509
180 2 45.9626
181 2 45.803
182 2 45.6242
183 2 45.6206
184 2 45.822
185 2 45.8421
186 2 45.81079999999999
187 2 44.42550000000001
188 2 44.4182
189 2 44.3949
190 2 44.5694
191 2 44.51860000000001
192 2 44.40489999999999
193 2 44.40310000000002
194 2 44.41389999999999
195 2 44.3149
196 2 44.35169999999999
197 2 44.5084
198 2 44.31910000000001
199 2 44.56779999999999
200 2 44.11079999999999
201 2 44.1016
202 2 44.11600000000001
203 2 44.1067
204 2 44.15469999999999
205 2 44.1101
206 2 44.11090000000001
207 2 44.27250000000001
208 2 44.2871
209 2 44.3127
210 2 44.3653
211 2 44.3824
212 2 44.31539999999998
213 2 44.05259999999999
214 2 44.3832
215 2 44.37489999999999
216 2 44.39699999999999
217 2 44.39950000000001
218 2 44.3776
219 2 43.8141
220 2 44.31309999999999
221 2 44.8425
222 2 44.82390000000001
223 2 44.636
224 2 44.215
225 2 44.7936
226 2 44.48329999999999
227 2 44.4286
228 2 44.5161
229 2 44.6908
230 2 44.3556
231 2 44.06250000000001
232 2 44.0522
233 2 44.2192
234 2 44.7883
235 2 44.79939999999999
236 2 44.4997
237 2 44.4722
238 2 44.8397
239 2 44.42
240 2 44.66219999999999
241 2 44.13920000000001
242 2 44.2997
243 2 44.65059999999999
244 2 44.0958
245 2 44.92610000000001
246 2 44.6575
247 2 44.8731
248 2 44.0131
249 2 44.7383
250 2 44.825
251 2 44.54119999999998
252 2 44.9278
253 2 45.0489
254 2 44.2839
255 2 45.03830000000001
256 2 43.9275
257 2 44.5394
258 2 44.7347
259 2 44.5
260 2 44.15000000000001
261 2 44.7003
262 2 43.9081
263 2 44.2856
