%%MatrixMarket matrix coordinate real general
%
158 2 316
1 1 6.8359
1 2 4.50348E1
2 1 7.0501
2 2 4.51391E1
3 1 7.2454
3 2 4.54302E1
4 1 7.3043
4 2 4.57344E1
5 1 7.3219
5 2 4.57324E1
6 1 7.3242
6 2 4.57358E1
7 1 7.5382
7 2 4.43818E1
8 1 7.5602
8 2 4.51758E1
9 1 7.6259
9 2 4.50419E1
10 1 7.6491
10 2 4.50249E1
11 1 7.658
11 2 4.51546E1
12 1 7.6782
12 2 4.50758E1
13 1 7.6853
13 2 4.47043E1
14 1 7.6953
14 2 4.51041E1
15 1 7.7116
15 2 4.51763E1
16 1 7.7664
16 2 4.55966E1
17 1 7.7782
17 2 4.51432E1
18 1 7.8146
18 2 4.44018E1
19 1 7.8375
19 2 4.50028E1
20 1 7.878
20 2 4.54512E1
21 1 8.0333
21 2 4.47037E1
22 1 8.0564
22 2 4.55588E1
23 1 8.1598
23 2 4.56642E1
24 1 8.1695
24 2 4.44122E1
25 1 8.1876
25 2 4.5569E1
26 1 8.1975
26 2 4.48942E1
27 1 8.2054
27 2 4.40526E1
28 1 8.2055
28 2 4.49089E1
29 1 8.2559
29 2 4.63148E1
30 1 8.2835
30 2 4.57132E1
31 1 8.2921
31 2 4.61276E1
32 1 8.2987
32 2 4.43749E1
33 1 8.3103
33 2 4.4808E1
34 1 8.4024
34 2 4.53189E1
35 1 8.4151
35 2 4.53284E1
36 1 8.4157
36 2 4.58988E1
37 1 8.4317
37 2 4.42871E1
38 1 8.4389
38 2 4.42725E1
39 1 8.4452
39 2 4.51361E1
40 1 8.4584
40 2 4.56894E1
41 1 8.5655
41 2 4.59303E1
42 1 8.612
42 2 4.49066E1
43 1 8.6197
43 2 4.54403E1
44 1 8.6204
44 2 4.54397E1
45 1 8.6232
45 2 4.49203E1
46 1 8.7046
46 2 4.45084E1
47 1 8.7367
47 2 4.55258E1
48 1 8.75
48 2 4.56167E1
49 1 8.7861
49 2 4.54097E1
50 1 8.949
50 2 4.45678E1
51 1 8.9501
51 2 4.44031E1
52 1 8.9682
52 2 4.44049E1
53 1 9.0524
53 2 4.47633E1
54 1 9.1258
54 2 4.57272E1
55 1 9.2744
55 2 4.55811E1
56 1 9.3275
56 2 4.54828E1
57 1 9.3669
57 2 4.47347E1
58 1 9.4953
58 2 4.53028E1
59 1 9.6147
59 2 4.56439E1
60 1 9.6439
60 2 4.56903E1
61 1 9.6669
61 2 4.5235E1
62 1 9.6692
62 2 4.50383E1
63 1 9.6933
63 2 4.50489E1
64 1 9.7139
64 2 4.5082E1
65 1 9.8303
65 2 4.48239E1
66 1 9.8803
66 2 4.61686E1
67 1 9.9403
67 2 4.51483E1
68 1 1.00458E1
68 2 4.51422E1
69 1 1.01775E1
69 2 4.58739E1
70 1 1.02889E1
70 2 4.46575E1
71 1 1.03317E1
71 2 4.47936E1
72 1 1.03367E1
72 2 4.47883E1
73 1 1.03708E1
73 2 4.49261E1
74 1 1.03725E1
74 2 4.64703E1
75 1 1.04303E1
75 2 4.42997E1
76 1 1.06228E1
76 2 4.47003E1
77 1 1.06639E1
77 2 4.48731E1
78 1 1.06647E1
78 2 4.46908E1
79 1 1.07339E1
79 2 4.45161E1
80 1 1.07914E1
80 2 4.45394E1
81 1 1.08189E1
81 2 4.45412E1
82 1 1.08837E1
82 2 4.47994E1
83 1 1.09047E1
83 2 4.4636E1
84 1 1.09063E1
84 2 4.46506E1
85 1 1.09261E1
85 2 4.415E1
86 1 1.09639E1
86 2 4.54453E1
87 1 1.10301E1
87 2 4.5433E1
88 1 1.10378E1
88 2 4.559E1
89 1 1.1178E1
89 2 4.49278E1
90 1 1.12861E1
90 2 4.45E1
91 1 1.12861E1
91 2 4.54E1
92 1 1.12997E1
92 2 4.47383E1
93 1 1.13114E1
93 2 4.51836E1
94 1 1.13283E1
94 2 4.44997E1
95 1 1.1355E1
95 2 4.44833E1
96 1 1.13686E1
96 2 4.57144E1
97 1 1.14164E1
97 2 4.44722E1
98 1 1.15219E1
98 2 4.55319E1
99 1 1.15342E1
99 2 4.55458E1
100 1 1.15397E1
100 2 4.55606E1
101 1 1.15533E1
101 2 4.51039E1
102 1 1.16131E1
102 2 4.48425E1
103 1 1.16394E1
103 2 4.46622E1
104 1 1.16431E1
104 2 4.529E1
105 1 1.16497E1
105 2 4.4825E1
106 1 1.16658E1
106 2 4.52267E1
107 1 1.17203E1
107 2 4.43556E1
108 1 1.17833E1
108 2 4.50747E1
109 1 1.17911E1
109 2 4.50397E1
110 1 1.18419E1
110 2 4.53719E1
111 1 1.18734E1
111 2 4.42856E1
112 1 1.18906E1
112 2 4.54333E1
113 1 1.19022E1
113 2 4.56003E1
114 1 1.19058E1
114 2 4.60308E1
115 1 1.194E1
115 2 4.53775E1
116 1 1.19611E1
116 2 4.48397E1
117 1 1.20489E1
117 2 4.42192E1
118 1 1.20564E1
118 2 4.4215E1
119 1 1.20619E1
119 2 4.50467E1
120 1 1.21867E1
120 2 4.44286E1
121 1 1.22056E1
121 2 4.54383E1
122 1 1.22128E1
122 2 4.61438E1
123 1 1.22161E1
123 2 4.56588E1
124 1 1.22169E1
124 2 4.61414E1
125 1 1.22183E1
125 2 4.54903E1
126 1 1.22208E1
126 2 4.54756E1
127 1 1.22247E1
127 2 4.39275E1
128 1 1.22256E1
128 2 4.442E1
129 1 1.22386E1
129 2 4.56725E1
130 1 1.22392E1
130 2 4.41392E1
131 1 1.22622E1
131 2 4.54992E1
132 1 1.23081E1
132 2 4.58906E1
133 1 1.23139E1
133 2 4.54294E1
134 1 1.23231E1
134 2 4.54356E1
135 1 1.23322E1
135 2 4.42839E1
136 1 1.23608E1
136 2 4.61625E1
137 1 1.24017E1
137 2 4.39081E1
138 1 1.24025E1
138 2 4.40958E1
139 1 1.242E1
139 2 4.40131E1
140 1 1.25019E1
140 2 4.59509E1
141 1 1.25103E1
141 2 4.58369E1
142 1 1.25363E1
142 2 4.58987E1
143 1 1.25533E1
143 2 4.40625E1
144 1 1.25756E1
144 2 4.40522E1
145 1 1.25917E1
145 2 4.56303E1
146 1 1.26186E1
146 2 4.59578E1
147 1 1.26559E1
147 2 4.59626E1
148 1 1.30667E1
148 2 4.62208E1
149 1 1.32406E1
149 2 4.60661E1
150 1 1.32621E1
150 2 4.58108E1
151 1 1.32714E1
151 2 4.5822E1
152 1 1.3302E1
152 2 4.58421E1
153 1 1.34747E1
153 2 4.65101E1
154 1 1.34864E1
154 2 4.57316E1
155 1 1.35221E1
155 2 4.58052E1
156 1 1.37661E1
156 2 4.56405E1
157 1 1.37803E1
157 2 4.56242E1
158 1 1.37838E1
158 2 4.56206E1












