%%MatrixMarket matrix coordinate real general
30 2 60
1 1 -81.11
2 1 -80.4
3 1 -81.9
4 1 -83.6
5 1 -80.9
6 1 -81.1
7 1 -81.81
8 1 -80.2
9 1 -80.16
10 1 -80.6
11 1 -80.5
12 1 -80.3
13 1 -80.2
14 1 -80.5
15 1 -81.8
16 1 -80.1
17 1 -84.5
18 1 -82.83
19 1 -80.2
20 1 -82.76
21 1 -83.3
22 1 -80.3
23 1 -80.1
24 1 -81.1
25 1 -82.9
26 1 -82.2
27 1 -80.7
28 1 -84.6
29 1 -83.3
30 1 -83.4
1 2 24.71
2 2 25
3 2 23.9
4 2 24.6
5 2 24.8
6 2 24.3
7 2 24.55
8 2 28.5
9 2 25.73
10 2 29.9
11 2 24.7
12 2 28.2
13 2 27.6
14 2 28.4
15 2 24.2
16 2 27.8
17 2 28.5
18 2 27.98
19 2 29.5
20 2 27.6
21 2 28.3
22 2 28.9
23 2 28.1
24 2 25.08
25 2 27.2
26 2 24.3
27 2 23.8
28 2 24.7
29 2 24.3
30 2 27.8
