%%MatrixMarket matrix coordinate  real general
3974 3 11922
1 1 266
1 2 267
1 3 983
2 1 250
2 2 252
2 3 253
3 1 283
3 2 284
3 3 925
4 1 313
4 2 314
4 3 312
5 1 314
5 2 311
5 3 312
6 1 332
6 2 333
6 3 331
7 1 290
7 2 291
7 3 289
8 1 291
8 2 292
8 3 289
9 1 216
9 2 462
9 3 222
10 1 221
10 2 830
10 3 217
11 1 217
11 2 463
11 3 221
12 1 467
12 2 469
12 3 202
13 1 335
13 2 336
13 3 334
14 1 190
14 2 188
14 3 189
15 1 385
15 2 386
15 3 716
16 1 185
16 2 183
16 3 184
17 1 411
17 2 412
17 3 413
18 1 424
18 2 426
18 3 427
19 1 152
19 2 150
19 3 151
20 1 111
20 2 109
20 3 110
21 1 78
21 2 76
21 3 77
22 1 54
22 2 52
22 3 53
23 1 109
23 2 111
23 3 108
24 1 114
24 2 112
24 3 113
25 1 4
25 2 474
25 3 7
26 1 7
26 2 3
26 3 4
27 1 427
27 2 423
27 3 424
28 1 216
28 2 222
28 3 215
29 1 227
29 2 688
29 3 687
30 1 268
30 2 269
30 3 839
31 1 321
31 2 319
31 3 320
32 1 426
32 2 424
32 3 425
33 1 306
33 2 304
33 3 305
34 1 70
34 2 72
34 3 73
35 1 252
35 2 250
35 3 251
36 1 16
36 2 14
36 3 15
37 1 297
37 2 295
37 3 296
38 1 318
38 2 316
38 3 317
39 1 194
39 2 192
39 3 193
40 1 210
40 2 211
40 3 493
41 1 324
41 2 322
41 3 323
42 1 856
42 2 347
42 3 348
43 1 345
43 2 348
43 3 344
44 1 344
44 2 348
44 3 762
45 1 984
45 2 233
45 3 837
46 1 235
46 2 837
46 3 234
47 1 275
47 2 276
47 3 922
48 1 236
48 2 237
48 3 836
49 1 230
49 2 231
49 3 1142
50 1 417
50 2 415
50 3 416
51 1 72
51 2 70
51 3 71
52 1 418
52 2 415
52 3 417
53 1 136
53 2 137
53 3 1008
54 1 851
54 2 852
54 3 440
55 1 186
55 2 183
55 3 185
56 1 333
56 2 334
56 3 1208
57 1 365
57 2 366
57 3 831
58 1 371
58 2 369
58 3 370
59 1 207
59 2 465
59 3 206
60 1 316
60 2 318
60 3 315
61 1 462
61 2 830
61 3 221
62 1 467
62 2 202
62 3 203
63 1 201
63 2 607
63 3 468
64 1 474
64 2 5
64 3 6
65 1 5
65 2 474
65 3 4
66 1 400
66 2 401
66 3 477
67 1 472
67 2 473
67 3 475
68 1 478
68 2 399
68 3 479
69 1 399
69 2 400
69 3 479
70 1 400
70 2 477
70 3 479
71 1 477
71 2 476
71 3 479
72 1 476
72 2 475
72 3 479
73 1 475
73 2 473
73 3 479
74 1 473
74 2 478
74 3 479
75 1 475
75 2 476
75 3 481
76 1 476
76 2 477
76 3 481
77 1 477
77 2 482
77 3 481
78 1 481
78 2 482
78 3 480
79 1 482
79 2 477
79 3 401
80 1 212
80 2 213
80 3 657
81 1 494
81 2 495
81 3 662
82 1 493
82 2 492
82 3 502
83 1 499
83 2 501
83 3 502
84 1 501
84 2 210
84 3 502
85 1 210
85 2 493
85 3 502
86 1 491
86 2 492
86 3 507
87 1 493
87 2 211
87 3 509
88 1 509
88 2 510
88 3 508
89 1 508
89 2 507
89 3 509
90 1 507
90 2 492
90 3 509
91 1 492
91 2 493
91 3 509
92 1 510
92 2 509
92 3 211
93 1 475
93 2 481
93 3 511
94 1 481
94 2 480
94 3 511
95 1 480
95 2 402
95 3 511
96 1 174
96 2 175
96 3 526
97 1 513
97 2 512
97 3 173
98 1 512
98 2 513
98 3 514
99 1 515
99 2 514
99 3 513
100 1 514
100 2 515
100 3 516
101 1 517
101 2 516
101 3 515
102 1 516
102 2 517
102 3 518
103 1 519
103 2 518
103 3 517
104 1 518
104 2 519
104 3 520
105 1 521
105 2 520
105 3 519
106 1 520
106 2 521
106 3 522
107 1 523
107 2 522
107 3 521
108 1 522
108 2 523
108 3 524
109 1 525
109 2 524
109 3 523
110 1 524
110 2 525
110 3 526
111 1 526
111 2 527
111 3 174
112 1 527
112 2 526
112 3 525
113 1 507
113 2 508
113 3 528
114 1 528
114 2 529
114 3 506
115 1 529
115 2 528
115 3 508
116 1 490
116 2 491
116 3 530
117 1 506
117 2 505
117 3 531
118 1 530
118 2 491
118 3 532
119 1 528
119 2 506
119 3 531
120 1 491
120 2 507
120 3 532
121 1 507
121 2 528
121 3 532
122 1 528
122 2 531
122 3 532
123 1 531
123 2 530
123 3 532
124 1 499
124 2 502
124 3 533
125 1 502
125 2 492
125 3 533
126 1 492
126 2 491
126 3 533
127 1 533
127 2 491
127 3 534
128 1 491
128 2 490
128 3 534
129 1 498
129 2 500
129 3 535
130 1 499
130 2 533
130 3 536
131 1 490
131 2 488
131 3 549
132 1 533
132 2 534
132 3 536
133 1 535
133 2 500
133 3 536
134 1 500
134 2 501
134 3 536
135 1 501
135 2 499
135 3 536
136 1 511
136 2 402
136 3 537
137 1 402
137 2 403
137 3 537
138 1 471
138 2 472
138 3 538
139 1 475
139 2 511
139 3 545
140 1 537
140 2 403
140 3 544
141 1 539
141 2 543
141 3 542
142 1 403
142 2 543
142 3 544
143 1 543
143 2 539
143 3 544
144 1 539
144 2 538
144 3 544
145 1 538
145 2 537
145 3 544
146 1 511
146 2 537
146 3 545
147 1 537
147 2 538
147 3 545
148 1 538
148 2 472
148 3 545
149 1 472
149 2 475
149 3 545
150 1 522
150 2 524
150 3 546
151 1 526
151 2 175
151 3 547
152 1 548
152 2 546
152 3 547
153 1 546
153 2 524
153 3 547
154 1 524
154 2 526
154 3 547
155 1 548
155 2 547
155 3 175
156 1 546
156 2 548
156 3 176
157 1 535
157 2 536
157 3 549
158 1 536
158 2 534
158 3 549
159 1 534
159 2 490
159 3 549
160 1 488
160 2 490
160 3 554
161 1 530
161 2 531
161 3 550
162 1 531
162 2 505
162 3 550
163 1 505
163 2 504
163 3 550
164 1 496
164 2 497
164 3 573
165 1 535
165 2 549
165 3 553
166 1 488
166 2 487
166 3 563
167 1 497
167 2 498
167 3 562
168 1 490
168 2 530
168 3 554
169 1 530
169 2 550
169 3 554
170 1 488
170 2 554
170 3 556
171 1 555
171 2 487
171 3 556
172 1 487
172 2 488
172 3 556
173 1 546
173 2 176
173 3 560
174 1 555
174 2 556
174 3 561
175 1 556
175 2 554
175 3 561
176 1 554
176 2 550
176 3 561
177 1 550
177 2 504
177 3 561
178 1 498
178 2 535
178 3 562
179 1 535
179 2 553
179 3 562
180 1 553
180 2 552
180 3 562
181 1 552
181 2 551
181 3 562
182 1 552
182 2 553
182 3 563
183 1 553
183 2 549
183 3 563
184 1 549
184 2 488
184 3 563
185 1 470
185 2 471
185 3 564
186 1 471
186 2 538
186 3 564
187 1 538
187 2 539
187 3 564
188 1 551
188 2 552
188 3 565
189 1 552
189 2 563
189 3 565
190 1 563
190 2 487
190 3 565
191 1 520
191 2 522
191 3 566
192 1 522
192 2 546
192 3 566
193 1 546
193 2 560
193 3 566
194 1 560
194 2 559
194 3 566
195 1 551
195 2 565
195 3 568
196 1 487
196 2 486
196 3 567
197 1 565
197 2 487
197 3 568
198 1 487
198 2 567
198 3 568
199 1 555
199 2 561
199 3 570
200 1 503
200 2 489
200 3 569
201 1 561
201 2 504
201 3 570
202 1 504
202 2 503
202 3 570
203 1 503
203 2 569
203 3 570
204 1 518
204 2 520
204 3 571
205 1 520
205 2 566
205 3 571
206 1 566
206 2 559
206 3 571
207 1 559
207 2 558
207 3 571
208 1 564
208 2 539
208 3 572
209 1 539
209 2 542
209 3 572
210 1 542
210 2 541
210 3 572
211 1 497
211 2 562
211 3 573
212 1 562
212 2 551
212 3 573
213 1 577
213 2 576
213 3 581
214 1 559
214 2 560
214 3 578
215 1 578
215 2 580
215 3 579
216 1 580
216 2 560
216 3 176
217 1 560
217 2 580
217 3 578
218 1 576
218 2 578
218 3 581
219 1 578
219 2 579
219 3 581
220 1 581
220 2 582
220 3 577
221 1 582
221 2 581
221 3 579
222 1 583
222 2 576
222 3 577
223 1 495
223 2 496
223 3 584
224 1 496
224 2 573
224 3 584
225 1 568
225 2 567
225 3 585
226 1 584
226 2 573
226 3 585
227 1 573
227 2 551
227 3 585
228 1 551
228 2 568
228 3 585
229 1 461
229 2 470
229 3 586
230 1 470
230 2 564
230 3 586
231 1 564
231 2 572
231 3 586
232 1 516
232 2 518
232 3 587
233 1 518
233 2 571
233 3 587
234 1 571
234 2 558
234 3 587
235 1 558
235 2 557
235 3 587
236 1 486
236 2 487
236 3 588
237 1 487
237 2 555
237 3 588
238 1 555
238 2 570
238 3 588
239 1 570
239 2 569
239 3 588
240 1 586
240 2 572
240 3 590
241 1 540
241 2 404
241 3 598
242 1 459
242 2 460
242 3 589
243 1 572
243 2 541
243 3 597
244 1 589
244 2 460
244 3 590
245 1 460
245 2 461
245 3 590
246 1 461
246 2 586
246 3 590
247 1 585
247 2 567
247 3 592
248 1 486
248 2 485
248 3 600
249 1 567
249 2 486
249 3 592
250 1 591
250 2 584
250 3 592
251 1 584
251 2 585
251 3 592
252 1 558
252 2 559
252 3 596
253 1 576
253 2 583
253 3 593
254 1 583
254 2 575
254 3 593
255 1 588
255 2 569
255 3 595
256 1 489
256 2 212
256 3 604
257 1 594
257 2 485
257 3 595
258 1 485
258 2 486
258 3 595
259 1 486
259 2 588
259 3 595
260 1 559
260 2 578
260 3 596
261 1 578
261 2 576
261 3 596
262 1 576
262 2 593
262 3 596
263 1 541
263 2 540
263 3 597
264 1 590
264 2 572
264 3 597
265 1 589
265 2 590
265 3 598
266 1 590
266 2 597
266 3 598
267 1 597
267 2 540
267 3 598
268 1 557
268 2 558
268 3 599
269 1 558
269 2 596
269 3 599
270 1 596
270 2 593
270 3 599
271 1 485
271 2 591
271 3 600
272 1 591
272 2 592
272 3 600
273 1 592
273 2 486
273 3 600
274 1 557
274 2 599
274 3 602
275 1 593
275 2 575
275 3 605
276 1 599
276 2 593
276 3 602
277 1 514
277 2 516
277 3 603
278 1 516
278 2 587
278 3 603
279 1 587
279 2 557
279 3 603
280 1 594
280 2 595
280 3 604
281 1 595
281 2 569
281 3 604
282 1 569
282 2 489
282 3 604
283 1 605
283 2 606
283 3 574
284 1 601
284 2 602
284 3 605
285 1 602
285 2 593
285 3 605
286 1 606
286 2 605
286 3 575
287 1 607
287 2 469
287 3 467
288 1 469
288 2 607
288 3 201
289 1 621
289 2 616
289 3 618
290 1 618
290 2 620
290 3 619
291 1 621
291 2 618
291 3 619
292 1 616
292 2 621
292 3 617
293 1 612
293 2 620
293 3 622
294 1 620
294 2 618
294 3 622
295 1 616
295 2 631
295 3 632
296 1 616
296 2 625
296 3 623
297 1 623
297 2 625
297 3 624
298 1 625
298 2 616
298 3 617
299 1 626
299 2 623
299 3 624
300 1 623
300 2 626
300 3 627
301 1 626
301 2 615
301 3 627
302 1 614
302 2 627
302 3 629
303 1 627
303 2 615
303 3 629
304 1 629
304 2 630
304 3 628
305 1 630
305 2 629
305 3 615
306 1 616
306 2 623
306 3 631
307 1 623
307 2 627
307 3 631
308 1 627
308 2 614
308 3 631
309 1 611
309 2 622
309 3 632
310 1 622
310 2 618
310 3 632
311 1 618
311 2 616
311 3 632
312 1 612
312 2 622
312 3 635
313 1 634
313 2 633
313 3 613
314 1 633
314 2 634
314 3 635
315 1 635
315 2 636
315 3 612
316 1 636
316 2 635
316 3 634
317 1 201
317 2 468
317 3 643
318 1 633
318 2 635
318 3 637
319 1 635
319 2 622
319 3 637
320 1 622
320 2 611
320 3 637
321 1 631
321 2 614
321 3 640
322 1 638
322 2 611
322 3 640
323 1 611
323 2 632
323 3 640
324 1 632
324 2 631
324 3 640
325 1 628
325 2 610
325 3 642
326 1 609
326 2 638
326 3 641
327 1 638
327 2 640
327 3 641
328 1 640
328 2 614
328 3 641
329 1 641
329 2 614
329 3 642
330 1 614
330 2 629
330 3 642
331 1 629
331 2 628
331 3 642
332 1 468
332 2 613
332 3 643
333 1 650
333 2 201
333 3 651
334 1 643
334 2 613
334 3 645
335 1 637
335 2 611
335 3 644
336 1 613
336 2 633
336 3 645
337 1 633
337 2 637
337 3 645
338 1 637
338 2 644
338 3 645
339 1 644
339 2 643
339 3 645
340 1 609
340 2 641
340 3 647
341 1 641
341 2 642
341 3 647
342 1 642
342 2 610
342 3 647
343 1 610
343 2 646
343 3 647
344 1 609
344 2 647
344 3 649
345 1 646
345 2 466
345 3 648
346 1 647
346 2 646
346 3 649
347 1 646
347 2 648
347 3 649
348 1 201
348 2 643
348 3 651
349 1 643
349 2 644
349 3 651
350 1 644
350 2 611
350 3 652
351 1 611
351 2 638
351 3 652
352 1 651
352 2 644
352 3 652
353 1 639
353 2 650
353 3 653
354 1 650
354 2 651
354 3 653
355 1 651
355 2 652
355 3 653
356 1 652
356 2 638
356 3 653
357 1 638
357 2 609
357 3 653
358 1 608
358 2 639
358 3 654
359 1 639
359 2 653
359 3 654
360 1 653
360 2 609
360 3 654
361 1 609
361 2 649
361 3 654
362 1 649
362 2 648
362 3 654
363 1 655
363 2 656
363 3 608
364 1 608
364 2 654
364 3 655
365 1 654
365 2 648
365 3 655
366 1 648
366 2 466
366 3 655
367 1 656
367 2 655
367 3 200
368 1 594
368 2 604
368 3 658
369 1 604
369 2 212
369 3 658
370 1 212
370 2 657
370 3 658
371 1 458
371 2 459
371 3 659
372 1 459
372 2 589
372 3 659
373 1 589
373 2 598
373 3 659
374 1 598
374 2 404
374 3 659
375 1 655
375 2 466
375 3 668
376 1 601
376 2 605
376 3 661
377 1 605
377 2 574
377 3 661
378 1 574
378 2 177
378 3 661
379 1 495
379 2 584
379 3 662
380 1 584
380 2 591
380 3 662
381 1 512
381 2 514
381 3 696
382 1 602
382 2 601
382 3 664
383 1 659
383 2 404
383 3 673
384 1 603
384 2 557
384 3 664
385 1 557
385 2 602
385 3 664
386 1 662
386 2 591
386 3 665
387 1 591
387 2 485
387 3 665
388 1 485
388 2 484
388 3 665
389 1 484
389 2 485
389 3 666
390 1 485
390 2 594
390 3 666
391 1 594
391 2 658
391 3 666
392 1 658
392 2 657
392 3 666
393 1 483
393 2 484
393 3 667
394 1 484
394 2 666
394 3 667
395 1 666
395 2 657
395 3 667
396 1 668
396 2 669
396 3 660
397 1 200
397 2 655
397 3 668
398 1 669
398 2 668
398 3 466
399 1 406
399 2 407
399 3 676
400 1 458
400 2 659
400 3 674
401 1 673
401 2 672
401 3 675
402 1 674
402 2 659
402 3 675
403 1 659
403 2 673
403 3 675
404 1 671
404 2 672
404 3 676
405 1 673
405 2 404
405 3 677
406 1 676
406 2 694
406 3 406
407 1 404
407 2 405
407 3 677
408 1 677
408 2 694
408 3 676
409 1 676
409 2 672
409 3 677
410 1 672
410 2 673
410 3 677
411 1 209
411 2 494
411 3 678
412 1 494
412 2 662
412 3 678
413 1 662
413 2 665
413 3 678
414 1 601
414 2 661
414 3 682
415 1 419
415 2 420
415 3 844
416 1 661
416 2 177
416 3 682
417 1 687
417 2 229
417 3 226
418 1 687
418 2 688
418 3 229
419 1 688
419 2 227
419 3 228
420 1 118
420 2 119
420 3 691
421 1 689
421 2 690
421 3 120
422 1 691
422 2 692
422 3 690
423 1 690
423 2 689
423 3 691
424 1 692
424 2 691
424 3 119
425 1 663
425 2 664
425 3 693
426 1 664
426 2 601
426 3 693
427 1 601
427 2 682
427 3 693
428 1 682
428 2 681
428 3 693
429 1 681
429 2 680
429 3 693
430 1 694
430 2 677
430 3 405
431 1 674
431 2 675
431 3 695
432 1 675
432 2 672
432 3 695
433 1 672
433 2 671
433 3 695
434 1 514
434 2 603
434 3 696
435 1 603
435 2 664
435 3 696
436 1 664
436 2 663
436 3 696
437 1 173
437 2 512
437 3 697
438 1 512
438 2 696
438 3 697
439 1 696
439 2 663
439 3 697
440 1 307
440 2 308
440 3 699
441 1 309
441 2 310
441 3 698
442 1 308
442 2 309
442 3 699
443 1 309
443 2 698
443 3 699
444 1 194
444 2 195
444 3 700
445 1 195
445 2 196
445 3 700
446 1 244
446 2 245
446 3 858
447 1 222
447 2 223
447 3 702
448 1 701
448 2 215
448 3 702
449 1 215
449 2 222
449 3 702
450 1 26
450 2 27
450 3 706
451 1 62
451 2 63
451 3 708
452 1 63
452 2 64
452 3 708
453 1 707
453 2 61
453 3 708
454 1 61
454 2 62
454 3 708
455 1 44
455 2 45
455 3 711
456 1 46
456 2 47
456 3 891
457 1 60
457 2 61
457 3 2197
458 1 45
458 2 46
458 3 711
459 1 430
459 2 431
459 3 1098
460 1 171
460 2 172
460 3 715
461 1 716
461 2 717
461 3 387
462 1 387
462 2 388
462 3 716
463 1 717
463 2 716
463 3 386
464 1 127
464 2 128
464 3 721
465 1 722
465 2 723
465 3 225
466 1 225
466 2 483
466 3 722
467 1 483
467 2 667
467 3 722
468 1 667
468 2 701
468 3 722
469 1 701
469 2 702
469 3 722
470 1 702
470 2 223
470 3 722
471 1 723
471 2 223
471 3 224
472 1 223
472 2 723
472 3 722
473 1 117
473 2 118
473 3 724
474 1 691
474 2 689
474 3 725
475 1 724
475 2 118
475 3 725
476 1 118
476 2 691
476 3 725
477 1 680
477 2 681
477 3 726
478 1 681
478 2 682
478 3 726
479 1 682
479 2 177
479 3 726
480 1 177
480 2 178
480 3 726
481 1 209
481 2 678
481 3 729
482 1 205
482 2 464
482 3 732
483 1 668
483 2 660
483 3 731
484 1 240
484 2 241
484 3 841
485 1 660
485 2 204
485 3 731
486 1 199
486 2 200
486 3 731
487 1 200
487 2 668
487 3 731
488 1 464
488 2 465
488 3 732
489 1 465
489 2 207
489 3 732
490 1 207
490 2 208
490 3 732
491 1 367
491 2 368
491 3 775
492 1 369
492 2 371
492 3 733
493 1 371
493 2 372
493 3 733
494 1 372
494 2 373
494 3 733
495 1 272
495 2 273
495 3 735
496 1 279
496 2 280
496 3 1442
497 1 273
497 2 274
497 3 735
498 1 274
498 2 734
498 3 735
499 1 20
499 2 21
499 3 737
500 1 22
500 2 23
500 3 736
501 1 738
501 2 736
501 3 737
502 1 738
502 2 737
502 3 21
503 1 736
503 2 738
503 3 22
504 1 748
504 2 749
504 3 42
505 1 744
505 2 739
505 3 741
506 1 741
506 2 743
506 3 742
507 1 745
507 2 746
507 3 43
508 1 744
508 2 741
508 3 742
509 1 739
509 2 744
509 3 740
510 1 43
510 2 743
510 3 745
511 1 743
511 2 741
511 3 745
512 1 746
512 2 745
512 3 42
513 1 42
513 2 745
513 3 748
514 1 745
514 2 741
514 3 748
515 1 741
515 2 739
515 3 748
516 1 749
516 2 748
516 3 747
517 1 739
517 2 752
517 3 750
518 1 750
518 2 752
518 3 751
519 1 752
519 2 739
519 3 740
520 1 753
520 2 750
520 3 751
521 1 41
521 2 747
521 3 758
522 1 750
522 2 753
522 3 754
523 1 753
523 2 44
523 3 754
524 1 754
524 2 44
524 3 755
525 1 44
525 2 711
525 3 755
526 1 739
526 2 750
526 3 756
527 1 750
527 2 754
527 3 756
528 1 756
528 2 754
528 3 757
529 1 754
529 2 755
529 3 757
530 1 747
530 2 748
530 3 758
531 1 748
531 2 739
531 3 758
532 1 739
532 2 756
532 3 758
533 1 41
533 2 758
533 3 759
534 1 758
534 2 756
534 3 759
535 1 756
535 2 757
535 3 759
536 1 50
536 2 51
536 3 760
537 1 51
537 2 52
537 3 760
538 1 83
538 2 84
538 3 761
539 1 84
539 2 85
539 3 761
540 1 348
540 2 349
540 3 762
541 1 350
541 2 351
541 3 763
542 1 762
542 2 764
542 3 763
543 1 763
543 2 764
543 3 350
544 1 764
544 2 762
544 3 349
545 1 765
545 2 767
545 3 218
546 1 765
546 2 766
546 3 219
547 1 219
547 2 220
547 3 765
548 1 220
548 2 463
548 3 765
549 1 766
549 2 765
549 3 218
550 1 767
550 2 463
550 3 217
551 1 463
551 2 767
551 3 765
552 1 48
552 2 49
552 3 769
553 1 760
553 2 52
553 3 768
554 1 52
554 2 54
554 3 768
555 1 54
555 2 55
555 3 768
556 1 49
556 2 50
556 3 769
557 1 50
557 2 760
557 3 769
558 1 760
558 2 768
558 3 769
559 1 40
559 2 41
559 3 771
560 1 759
560 2 757
560 3 770
561 1 757
561 2 755
561 3 884
562 1 41
562 2 759
562 3 771
563 1 759
563 2 770
563 3 771
564 1 770
564 2 772
564 3 771
565 1 771
565 2 772
565 3 40
566 1 772
566 2 770
566 3 39
567 1 718
567 2 1378
567 3 1931
568 1 14
568 2 16
568 3 933
569 1 19
569 2 20
569 3 773
570 1 737
570 2 736
570 3 774
571 1 773
571 2 20
571 3 774
572 1 20
572 2 737
572 3 774
573 1 368
573 2 369
573 3 775
574 1 369
574 2 733
574 3 775
575 1 733
575 2 367
575 3 775
576 1 724
576 2 725
576 3 776
577 1 725
577 2 689
577 3 776
578 1 689
578 2 120
578 3 776
579 1 120
579 2 121
579 3 776
580 1 101
580 2 102
580 3 778
581 1 716
581 2 388
581 3 780
582 1 385
582 2 716
582 3 780
583 1 699
583 2 698
583 3 782
584 1 781
584 2 307
584 3 782
585 1 307
585 2 699
585 3 782
586 1 784
586 2 783
586 3 160
587 1 161
587 2 803
587 3 808
588 1 685
588 2 686
588 3 806
589 1 807
589 2 788
589 3 790
590 1 799
590 2 790
590 3 792
591 1 797
591 2 792
591 3 794
592 1 794
592 2 796
592 3 795
593 1 797
593 2 794
593 3 795
594 1 792
594 2 797
594 3 793
595 1 798
595 2 802
595 3 162
596 1 162
596 2 796
596 3 798
597 1 796
597 2 794
597 3 798
598 1 799
598 2 792
598 3 793
599 1 790
599 2 799
599 3 791
600 1 798
600 2 794
600 3 800
601 1 794
601 2 792
601 3 800
602 1 801
602 2 802
602 3 803
603 1 802
603 2 798
603 3 803
604 1 798
604 2 800
604 3 803
605 1 161
605 2 801
605 3 803
606 1 800
606 2 792
606 3 804
607 1 792
607 2 790
607 3 804
608 1 803
608 2 800
608 3 805
609 1 800
609 2 804
609 3 805
610 1 686
610 2 805
610 3 806
611 1 805
611 2 804
611 3 806
612 1 804
612 2 790
612 3 806
613 1 790
613 2 788
613 3 806
614 1 788
614 2 810
614 3 819
615 1 807
615 2 790
615 3 791
616 1 788
616 2 807
616 3 789
617 1 803
617 2 805
617 3 808
618 1 805
618 2 686
618 3 808
619 1 785
619 2 783
619 3 828
620 1 161
620 2 808
620 3 809
621 1 808
621 2 686
621 3 809
622 1 686
622 2 685
622 3 809
623 1 685
623 2 785
623 3 809
624 1 788
624 2 812
624 3 810
625 1 810
625 2 812
625 3 811
626 1 812
626 2 788
626 3 789
627 1 810
627 2 815
627 3 813
628 1 813
628 2 815
628 3 814
629 1 815
629 2 810
629 3 811
630 1 816
630 2 813
630 3 814
631 1 813
631 2 816
631 3 817
632 1 816
632 2 787
632 3 817
633 1 810
633 2 813
633 3 818
634 1 813
634 2 817
634 3 818
635 1 817
635 2 786
635 3 818
636 1 810
636 2 818
636 3 819
637 1 818
637 2 786
637 3 819
638 1 806
638 2 788
638 3 819
639 1 817
639 2 787
639 3 823
640 1 821
640 2 822
640 3 820
641 1 823
641 2 824
641 3 822
642 1 822
642 2 821
642 3 823
643 1 821
643 2 786
643 3 823
644 1 786
644 2 817
644 3 823
645 1 824
645 2 823
645 3 787
646 1 684
646 2 685
646 3 827
647 1 821
647 2 820
647 3 826
648 1 820
648 2 163
648 3 826
649 1 786
649 2 821
649 3 826
650 1 685
650 2 806
650 3 827
651 1 806
651 2 819
651 3 827
652 1 819
652 2 786
652 3 827
653 1 786
653 2 826
653 3 827
654 1 826
654 2 825
654 3 827
655 1 825
655 2 684
655 3 827
656 1 783
656 2 784
656 3 828
657 1 829
657 2 809
657 3 828
658 1 809
658 2 785
658 3 828
659 1 829
659 2 828
659 3 784
660 1 809
660 2 829
660 3 161
661 1 830
661 2 462
661 3 216
662 1 366
662 2 367
662 3 831
663 1 367
663 2 733
663 3 831
664 1 733
664 2 373
664 3 831
665 1 145
665 2 146
665 3 835
666 1 231
666 2 232
666 3 836
667 1 232
667 2 233
667 3 836
668 1 352
668 2 353
668 3 838
669 1 353
669 2 354
669 3 838
670 1 269
670 2 270
670 3 839
671 1 270
671 2 271
671 3 839
672 1 241
672 2 242
672 3 841
673 1 671
673 2 676
673 3 2208
674 1 408
674 2 409
674 3 843
675 1 407
675 2 408
675 3 843
676 1 420
676 2 421
676 3 844
677 1 445
677 2 446
677 3 845
678 1 446
678 2 447
678 3 845
679 1 447
679 2 448
679 3 845
680 1 847
680 2 96
680 3 97
681 1 105
681 2 106
681 3 848
682 1 106
682 2 107
682 3 848
683 1 73
683 2 74
683 3 931
684 1 78
684 2 79
684 3 850
685 1 79
685 2 80
685 3 850
686 1 80
686 2 849
686 3 850
687 1 440
687 2 441
687 3 851
688 1 852
688 2 851
688 3 439
689 1 142
689 2 143
689 3 855
690 1 856
690 2 348
690 3 345
691 1 347
691 2 856
691 3 346
692 1 328
692 2 329
692 3 857
693 1 329
693 2 330
693 3 857
694 1 245
694 2 246
694 3 858
695 1 244
695 2 858
695 3 861
696 1 840
696 2 841
696 3 2297
697 1 249
697 2 250
697 3 923
698 1 858
698 2 246
698 3 863
699 1 937
699 2 938
699 3 247
700 1 442
700 2 443
700 3 865
701 1 864
701 2 851
701 3 865
702 1 851
702 2 441
702 3 865
703 1 441
703 2 442
703 3 865
704 1 848
704 2 107
704 3 866
705 1 866
705 2 867
705 3 108
706 1 867
706 2 866
706 3 107
707 1 116
707 2 117
707 3 1200
708 1 105
708 2 848
708 3 869
709 1 866
709 2 108
709 3 1206
710 1 114
710 2 115
710 3 1137
711 1 848
711 2 866
711 3 869
712 1 866
712 2 868
712 3 869
713 1 868
713 2 104
713 3 869
714 1 104
714 2 105
714 3 869
715 1 825
715 2 826
715 3 871
716 1 826
716 2 163
716 3 871
717 1 163
717 2 870
717 3 871
718 1 783
718 2 785
718 3 872
719 1 785
719 2 685
719 3 872
720 1 685
720 2 684
720 3 872
721 1 302
721 2 303
721 3 1094
722 1 321
722 2 322
722 3 875
723 1 319
723 2 321
723 3 875
724 1 763
724 2 351
724 3 877
725 1 351
725 2 352
725 3 877
726 1 762
726 2 763
726 3 877
727 1 83
727 2 761
727 3 880
728 1 761
728 2 85
728 3 883
729 1 85
729 2 86
729 3 883
730 1 86
730 2 882
730 3 883
731 1 755
731 2 711
731 3 884
732 1 711
732 2 710
732 3 884
733 1 770
733 2 757
733 3 884
734 1 770
734 2 884
734 3 885
735 1 884
735 2 710
735 3 885
736 1 710
736 2 709
736 3 885
737 1 728
737 2 729
737 3 995
738 1 225
738 2 226
738 3 887
739 1 2295
739 2 230
739 3 2296
740 1 483
740 2 225
740 3 887
741 1 130
741 2 131
741 3 890
742 1 13
742 2 14
742 3 941
743 1 720
743 2 721
743 3 1000
744 1 48
744 2 769
744 3 1077
745 1 710
745 2 711
745 3 891
746 1 711
746 2 46
746 3 891
747 1 892
747 2 893
747 3 26
748 1 26
748 2 706
748 3 892
749 1 706
749 2 705
749 3 892
750 1 893
750 2 892
750 3 25
751 1 706
751 2 27
751 3 897
752 1 894
752 2 28
752 3 895
753 1 29
753 2 30
753 3 896
754 1 895
754 2 1075
754 3 896
755 1 896
755 2 1075
755 3 29
756 1 27
756 2 28
756 3 897
757 1 28
757 2 894
757 3 897
758 1 894
758 2 705
758 3 897
759 1 705
759 2 706
759 3 897
760 1 898
760 2 899
760 3 214
761 1 214
761 2 215
761 3 898
762 1 215
762 2 701
762 3 898
763 1 701
763 2 667
763 3 898
764 1 667
764 2 657
764 3 898
765 1 899
765 2 657
765 3 213
766 1 657
766 2 899
766 3 898
767 1 663
767 2 693
767 3 901
768 1 697
768 2 663
768 3 901
769 1 695
769 2 671
769 3 902
770 1 671
770 2 670
770 3 902
771 1 674
771 2 695
771 3 904
772 1 695
772 2 902
772 3 904
773 1 397
773 2 398
773 3 911
774 1 281
774 2 282
774 3 910
775 1 674
775 2 904
775 3 955
776 1 363
776 2 364
776 3 915
777 1 379
777 2 380
777 3 1211
778 1 453
778 2 454
778 3 919
779 1 183
779 2 186
779 3 1009
780 1 191
780 2 192
780 3 921
781 1 190
781 2 191
781 3 921
782 1 276
782 2 277
782 3 922
783 1 277
783 2 278
783 3 922
784 1 278
784 2 279
784 3 922
785 1 279
785 2 274
785 3 922
786 1 274
786 2 275
786 3 922
787 1 250
787 2 253
787 3 923
788 1 253
788 2 254
788 3 923
789 1 284
789 2 285
789 3 925
790 1 285
790 2 924
790 3 925
791 1 180
791 2 181
791 3 928
792 1 297
792 2 298
792 3 929
793 1 929
793 2 930
793 3 299
794 1 299
794 2 300
794 3 929
795 1 930
795 2 929
795 3 298
796 1 74
796 2 75
796 3 931
797 1 75
797 2 76
797 3 980
798 1 3
798 2 7
798 3 932
799 1 7
799 2 8
799 3 932
800 1 8
800 2 9
800 3 932
801 1 16
801 2 17
801 3 933
802 1 17
802 2 18
802 3 933
803 1 18
803 2 19
803 3 933
804 1 932
804 2 9
804 3 934
805 1 9
805 2 10
805 3 934
806 1 10
806 2 11
806 3 934
807 1 394
807 2 395
807 3 936
808 1 935
808 2 393
808 3 936
809 1 393
809 2 394
809 3 936
810 1 247
810 2 248
810 3 937
811 1 863
811 2 246
811 3 937
812 1 938
812 2 937
812 3 246
813 1 249
813 2 923
813 3 1138
814 1 862
814 2 863
814 3 939
815 1 863
815 2 937
815 3 939
816 1 937
816 2 248
816 3 939
817 1 933
817 2 19
817 3 1129
818 1 14
818 2 933
818 3 941
819 1 68
819 2 69
819 3 943
820 1 73
820 2 931
820 3 1061
821 1 929
821 2 300
821 3 945
822 1 944
822 2 295
822 3 945
823 1 295
823 2 297
823 3 945
824 1 297
824 2 929
824 3 945
825 1 927
825 2 928
825 3 946
826 1 928
826 2 181
826 3 946
827 1 181
827 2 182
827 3 946
828 1 283
828 2 925
828 3 950
829 1 286
829 2 287
829 3 949
830 1 925
830 2 924
830 3 949
831 1 924
831 2 286
831 3 949
832 1 925
832 2 949
832 3 950
833 1 949
833 2 948
833 3 950
834 1 282
834 2 283
834 3 950
835 1 149
835 2 150
835 3 953
836 1 455
836 2 456
836 3 1019
837 1 834
837 2 835
837 3 1086
838 1 396
838 2 397
838 3 954
839 1 397
839 2 911
839 3 954
840 1 911
840 2 905
840 3 954
841 1 904
841 2 903
841 3 955
842 1 903
842 2 905
842 3 955
843 1 905
843 2 911
843 3 955
844 1 911
844 2 398
844 3 955
845 1 398
845 2 458
845 3 955
846 1 458
846 2 674
846 3 955
847 1 862
847 2 939
847 3 1062
848 1 258
848 2 259
848 3 1148
849 1 263
849 2 264
849 3 1093
850 1 194
850 2 700
850 3 959
851 1 192
851 2 194
851 3 959
852 1 324
852 2 325
852 3 965
853 1 340
853 2 341
853 3 1013
854 1 328
854 2 857
854 3 963
855 1 1124
855 2 2202
855 3 327
856 1 825
856 2 871
856 3 967
857 1 164
857 2 165
857 3 1016
858 1 871
858 2 870
858 3 967
859 1 870
859 2 164
859 3 967
860 1 683
860 2 684
860 3 1440
861 1 860
861 2 861
861 3 968
862 1 861
862 2 858
862 3 968
863 1 858
863 2 863
863 3 968
864 1 863
864 2 862
864 3 968
865 1 242
865 2 243
865 3 969
866 1 243
866 2 244
866 3 969
867 1 244
867 2 861
867 3 969
868 1 861
868 2 860
868 3 969
869 1 857
869 2 330
869 3 970
870 1 330
870 2 331
870 3 970
871 1 2201
871 2 972
871 3 971
872 1 855
872 2 854
872 3 972
873 1 142
873 2 855
873 3 972
874 1 854
874 2 855
874 3 973
875 1 855
875 2 974
875 3 973
876 1 973
876 2 974
876 3 144
877 1 974
877 2 855
877 3 143
878 1 133
878 2 134
878 3 977
879 1 889
879 2 890
879 3 1135
880 1 439
880 2 851
880 3 979
881 1 851
881 2 864
881 3 979
882 1 864
882 2 978
882 3 979
883 1 978
883 2 438
883 3 979
884 1 438
884 2 439
884 3 979
885 1 76
885 2 78
885 3 980
886 1 78
886 2 850
886 3 980
887 1 850
887 2 849
887 3 980
888 1 942
888 2 931
888 3 980
889 1 931
889 2 75
889 3 980
890 1 96
890 2 847
890 3 981
891 1 847
891 2 846
891 3 981
892 1 418
892 2 419
892 3 982
893 1 419
893 2 844
893 3 982
894 1 267
894 2 268
894 3 983
895 1 268
895 2 839
895 3 983
896 1 839
896 2 271
896 3 983
897 1 984
897 2 837
897 3 235
898 1 984
898 2 836
898 3 233
899 1 836
899 2 984
899 3 236
900 1 782
900 2 698
900 3 986
901 1 318
901 2 319
901 3 1048
902 1 874
902 2 873
902 3 2200
903 1 781
903 2 782
903 3 986
904 1 384
904 2 385
904 3 987
905 1 385
905 2 780
905 3 987
906 1 780
906 2 779
906 3 987
907 1 100
907 2 101
907 3 988
908 1 101
908 2 778
908 3 988
909 1 778
909 2 777
909 3 988
910 1 777
910 2 724
910 3 988
911 1 724
911 2 776
911 3 988
912 1 777
912 2 778
912 3 989
913 1 778
913 2 102
913 3 989
914 1 102
914 2 103
914 3 989
915 1 103
915 2 104
915 3 989
916 1 104
916 2 868
916 3 989
917 1 774
917 2 736
917 3 992
918 1 23
918 2 24
918 3 991
919 1 736
919 2 23
919 3 992
920 1 23
920 2 991
920 3 992
921 1 991
921 2 990
921 3 992
922 1 990
922 2 773
922 3 992
923 1 773
923 2 774
923 3 992
924 1 732
924 2 208
924 3 993
925 1 208
925 2 209
925 3 994
926 1 728
926 2 727
926 3 993
927 1 209
927 2 729
927 3 994
928 1 729
928 2 728
928 3 994
929 1 728
929 2 993
929 3 994
930 1 993
930 2 208
930 3 994
931 1 665
931 2 484
931 3 1007
932 1 483
932 2 887
932 3 995
933 1 887
933 2 886
933 3 995
934 1 726
934 2 178
934 3 996
935 1 178
935 2 179
935 3 996
936 1 179
936 2 180
936 3 1065
937 1 93
937 2 94
937 3 1042
938 1 721
938 2 720
938 3 999
939 1 997
939 2 1199
939 3 999
940 1 999
940 2 1199
940 3 127
941 1 127
941 2 721
941 3 999
942 1 721
942 2 128
942 3 1000
943 1 128
943 2 129
943 3 1000
944 1 719
944 2 720
944 3 1000
945 1 1001
945 2 1002
945 3 171
946 1 171
946 2 715
946 3 1001
947 1 715
947 2 714
947 3 1001
948 1 1002
948 2 1001
948 3 170
949 1 715
949 2 172
949 3 1004
950 1 173
950 2 697
950 3 1003
951 1 697
951 2 901
951 3 1133
952 1 172
952 2 173
952 3 1004
953 1 173
953 2 1003
953 3 1004
954 1 1003
954 2 714
954 3 1004
955 1 714
955 2 715
955 3 1004
956 1 700
956 2 196
956 3 1005
957 1 196
957 2 197
957 3 1005
958 1 1005
958 2 197
958 3 1006
959 1 197
959 2 198
959 3 1006
960 1 198
960 2 199
960 3 1006
961 1 484
961 2 483
961 3 1007
962 1 483
962 2 995
962 3 1007
963 1 995
963 2 729
963 3 1007
964 1 729
964 2 678
964 3 1007
965 1 678
965 2 665
965 3 1007
966 1 137
966 2 138
966 3 1008
967 1 138
967 2 139
967 3 1008
968 1 139
968 2 140
968 3 1008
969 1 140
969 2 141
969 3 1008
970 1 971
970 2 1050
970 3 2294
971 1 186
971 2 187
971 3 1009
972 1 187
972 2 188
972 3 1009
973 1 374
973 2 375
973 3 1010
974 1 376
974 2 377
974 3 1012
975 1 377
975 2 378
975 3 1011
976 1 378
976 2 379
976 3 1011
977 1 377
977 2 1011
977 3 1012
978 1 1011
978 2 1010
978 3 1012
979 1 1010
979 2 375
979 3 1012
980 1 375
980 2 376
980 3 1012
981 1 341
981 2 342
981 3 1013
982 1 35
982 2 36
982 3 1015
983 1 34
983 2 35
983 3 1015
984 1 165
984 2 166
984 3 1016
985 1 166
985 2 167
985 3 1016
986 1 966
986 2 967
986 3 1016
987 1 967
987 2 164
987 3 1016
988 1 37
988 2 38
988 3 1021
989 1 885
989 2 709
989 3 1026
990 1 882
990 2 86
990 3 1022
991 1 1022
991 2 1023
991 3 87
992 1 87
992 2 88
992 3 1022
993 1 1023
993 2 1022
993 3 86
994 1 391
994 2 392
994 3 1024
995 1 392
995 2 393
995 3 1024
996 1 36
996 2 37
996 3 1025
997 1 37
997 2 1021
997 3 1025
998 1 1021
998 2 1020
998 3 1025
999 1 1020
999 2 1021
999 3 1026
1000 1 39
1000 2 770
1000 3 1027
1001 1 770
1001 2 885
1001 3 1027
1002 1 885
1002 2 1026
1002 3 1027
1003 1 1026
1003 2 1021
1003 3 1027
1004 1 1021
1004 2 38
1004 3 1027
1005 1 38
1005 2 39
1005 3 1027
1006 1 918
1006 2 919
1006 3 1028
1007 1 919
1007 2 454
1007 3 1028
1008 1 1028
1008 2 2196
1008 3 455
1009 1 455
1009 2 1019
1009 3 1028
1010 1 1019
1010 2 1018
1010 3 1028
1011 1 1018
1011 2 1019
1011 3 1029
1012 1 1019
1012 2 456
1012 3 1029
1013 1 456
1013 2 457
1013 3 1029
1014 1 33
1014 2 34
1014 3 1030
1015 1 34
1015 2 1015
1015 3 1030
1016 1 1015
1016 2 1014
1016 3 1030
1017 1 962
1017 2 963
1017 3 1121
1018 1 340
1018 2 1013
1018 3 1032
1019 1 1013
1019 2 342
1019 3 1034
1020 1 876
1020 2 877
1020 3 1080
1021 1 364
1021 2 365
1021 3 1037
1022 1 1010
1022 2 1035
1022 3 1036
1023 1 365
1023 2 831
1023 3 1036
1024 1 365
1024 2 1036
1024 3 1037
1025 1 1036
1025 2 1035
1025 3 1037
1026 1 1035
1026 2 914
1026 3 1037
1027 1 914
1027 2 915
1027 3 1037
1028 1 915
1028 2 364
1028 3 1037
1029 1 170
1029 2 1001
1029 3 1039
1030 1 714
1030 2 713
1030 3 1426
1031 1 1001
1031 2 714
1031 3 1039
1032 1 1038
1032 2 1040
1032 3 1039
1033 1 1039
1033 2 1040
1033 3 170
1034 1 997
1034 2 999
1034 3 1115
1035 1 718
1035 2 1931
1035 3 1932
1036 1 990
1036 2 991
1036 3 1046
1037 1 25
1037 2 892
1037 3 1108
1038 1 991
1038 2 24
1038 3 1045
1039 1 991
1039 2 1045
1039 3 1046
1040 1 1045
1040 2 1044
1040 3 1046
1041 1 311
1041 2 314
1041 3 2195
1042 1 985
1042 2 986
1042 3 1047
1043 1 986
1043 2 698
1043 3 1047
1044 1 698
1044 2 310
1044 3 1047
1045 1 319
1045 2 875
1045 3 1048
1046 1 875
1046 2 874
1046 3 1048
1047 1 985
1047 2 1047
1047 3 1048
1048 1 1047
1048 2 318
1048 3 1048
1049 1 972
1049 2 854
1049 3 1050
1050 1 976
1050 2 977
1050 3 1049
1051 1 977
1051 2 134
1051 3 1049
1052 1 134
1052 2 135
1052 3 1049
1053 1 854
1053 2 853
1053 3 1050
1054 1 971
1054 2 972
1054 3 1050
1055 1 835
1055 2 834
1055 3 1053
1056 1 973
1056 2 144
1056 3 1052
1057 1 853
1057 2 854
1057 3 1052
1058 1 854
1058 2 973
1058 3 1052
1059 1 1054
1059 2 1051
1059 3 1052
1060 1 1053
1060 2 1054
1060 3 145
1061 1 145
1061 2 835
1061 3 1053
1062 1 1054
1062 2 1052
1062 3 144
1063 1 1051
1063 2 1054
1063 3 1053
1064 1 874
1064 2 875
1064 3 1055
1065 1 875
1065 2 322
1065 3 1055
1066 1 322
1066 2 324
1066 3 1055
1067 1 324
1067 2 965
1067 3 1055
1068 1 965
1068 2 964
1068 3 1055
1069 1 920
1069 2 921
1069 3 1056
1070 1 921
1070 2 192
1070 3 1056
1071 1 192
1071 2 959
1071 3 1056
1072 1 959
1072 2 958
1072 3 1056
1073 1 936
1073 2 395
1073 3 1058
1074 1 396
1074 2 954
1074 3 1402
1075 1 395
1075 2 396
1075 3 1058
1076 1 935
1076 2 936
1076 3 1058
1077 1 909
1077 2 910
1077 3 1059
1078 1 910
1078 2 282
1078 3 1059
1079 1 282
1079 2 950
1079 3 1059
1080 1 950
1080 2 948
1080 3 1059
1081 1 946
1081 2 182
1081 3 1060
1082 1 182
1082 2 183
1082 3 1060
1083 1 183
1083 2 1009
1083 3 1060
1084 1 931
1084 2 942
1084 3 1061
1085 1 942
1085 2 943
1085 3 1061
1086 1 943
1086 2 69
1086 3 1061
1087 1 69
1087 2 70
1087 3 1061
1088 1 70
1088 2 73
1088 3 1061
1089 1 923
1089 2 254
1089 3 1205
1090 1 3
1090 2 932
1090 3 1064
1091 1 932
1091 2 934
1091 3 1064
1092 1 1064
1092 2 1398
1092 3 3
1093 1 180
1093 2 928
1093 3 1065
1094 1 928
1094 2 927
1094 3 1065
1095 1 996
1095 2 179
1095 3 1065
1096 1 452
1096 2 453
1096 3 1066
1097 1 453
1097 2 919
1097 3 1066
1098 1 919
1098 2 918
1098 3 1066
1099 1 915
1099 2 914
1099 3 1070
1100 1 838
1100 2 354
1100 3 1069
1101 1 360
1101 2 361
1101 3 1071
1102 1 1067
1102 2 1070
1102 3 1397
1103 1 1067
1103 2 1071
1103 3 1395
1104 1 363
1104 2 915
1104 3 1070
1105 1 361
1105 2 362
1105 3 1071
1106 1 356
1106 2 357
1106 3 1089
1107 1 281
1107 2 910
1107 3 1072
1108 1 902
1108 2 670
1108 3 1074
1109 1 1075
1109 2 895
1109 3 28
1110 1 879
1110 2 880
1110 3 1078
1111 1 895
1111 2 896
1111 3 1076
1112 1 896
1112 2 30
1112 3 1076
1113 1 30
1113 2 31
1113 3 1076
1114 1 56
1114 2 57
1114 3 1106
1115 1 891
1115 2 47
1115 3 1077
1116 1 47
1116 2 48
1116 3 1077
1117 1 880
1117 2 761
1117 3 1078
1118 1 761
1118 2 883
1118 3 1078
1119 1 883
1119 2 882
1119 3 1078
1120 1 82
1120 2 83
1120 3 1079
1121 1 83
1121 2 880
1121 3 1079
1122 1 880
1122 2 879
1122 3 1079
1123 1 877
1123 2 352
1123 3 1080
1124 1 352
1124 2 838
1124 3 1080
1125 1 444
1125 2 445
1125 3 1081
1126 1 445
1126 2 845
1126 3 1081
1127 1 448
1127 2 449
1127 3 1082
1128 1 1081
1128 2 845
1128 3 1082
1129 1 845
1129 2 448
1129 3 1082
1130 1 843
1130 2 409
1130 3 1085
1131 1 413
1131 2 414
1131 3 1390
1132 1 410
1132 2 411
1132 3 1084
1133 1 409
1133 2 410
1133 3 1085
1134 1 410
1134 2 1084
1134 3 1085
1135 1 1084
1135 2 1083
1135 3 1085
1136 1 842
1136 2 843
1136 3 1085
1137 1 835
1137 2 146
1137 3 1086
1138 1 146
1138 2 147
1138 3 1086
1139 1 147
1139 2 148
1139 3 1086
1140 1 779
1140 2 780
1140 3 1087
1141 1 780
1141 2 2176
1141 3 1087
1142 1 1087
1142 2 2176
1142 3 389
1143 1 159
1143 2 160
1143 3 1088
1144 1 160
1144 2 783
1144 3 1088
1145 1 783
1145 2 872
1145 3 1088
1146 1 864
1146 2 865
1146 3 1105
1147 1 1089
1147 2 1090
1147 3 358
1148 1 1069
1148 2 354
1148 3 1389
1149 1 1090
1149 2 1089
1149 3 357
1150 1 271
1150 2 272
1150 3 1092
1151 1 264
1151 2 265
1151 3 2174
1152 1 1092
1152 2 1091
1152 3 1093
1153 1 303
1153 2 304
1153 3 1094
1154 1 304
1154 2 306
1154 3 1183
1155 1 354
1155 2 355
1155 3 1095
1156 1 355
1156 2 356
1156 3 1095
1157 1 356
1157 2 1089
1157 3 1095
1158 1 844
1158 2 421
1158 3 1096
1159 1 421
1159 2 422
1159 3 1096
1160 1 422
1160 2 423
1160 3 1096
1161 1 423
1161 2 427
1161 3 1149
1162 1 432
1162 2 433
1162 3 1099
1163 1 1098
1163 2 431
1163 3 1099
1164 1 431
1164 2 432
1164 3 1099
1165 1 1029
1165 2 457
1165 3 1100
1166 1 457
1166 2 0
1166 3 1100
1167 1 0
1167 2 1
1167 3 1100
1168 1 1091
1168 2 1092
1168 3 2166
1169 1 1092
1169 2 272
1169 3 2165
1170 1 414
1170 2 415
1170 3 1104
1171 1 865
1171 2 443
1171 3 1105
1172 1 443
1172 2 444
1172 3 1105
1173 1 444
1173 2 1081
1173 3 1105
1174 1 57
1174 2 58
1174 3 1106
1175 1 58
1175 2 59
1175 3 1106
1176 1 769
1176 2 768
1176 3 1381
1177 1 1045
1177 2 24
1177 3 1108
1178 1 24
1178 2 25
1178 3 1108
1179 1 1045
1179 2 1108
1179 3 1109
1180 1 1108
1180 2 892
1180 3 1109
1181 1 892
1181 2 705
1181 3 1109
1182 1 705
1182 2 704
1182 3 1109
1183 1 92
1183 2 93
1183 3 1110
1184 1 93
1184 2 1042
1184 3 1110
1185 1 1042
1185 2 94
1185 3 1111
1186 1 94
1186 2 95
1186 3 1111
1187 1 67
1187 2 68
1187 3 1127
1188 1 1014
1188 2 1015
1188 3 1112
1189 1 1015
1189 2 36
1189 3 1112
1190 1 36
1190 2 1025
1190 3 1112
1191 1 1025
1191 2 1020
1191 3 1198
1192 1 958
1192 2 959
1192 3 1113
1193 1 959
1193 2 700
1193 3 1113
1194 1 700
1194 2 1005
1194 3 1113
1195 1 1000
1195 2 129
1195 3 1114
1196 1 129
1196 2 130
1196 3 1114
1197 1 130
1197 2 890
1197 3 1114
1198 1 890
1198 2 889
1198 3 1114
1199 1 999
1199 2 720
1199 3 1115
1200 1 720
1200 2 719
1200 3 1115
1201 1 96
1201 2 981
1201 3 1177
1202 1 437
1202 2 438
1202 3 1117
1203 1 438
1203 2 978
1203 3 1117
1204 1 434
1204 2 435
1204 3 1119
1205 1 435
1205 2 436
1205 3 1209
1206 1 1097
1206 2 1098
1206 3 1181
1207 1 132
1207 2 133
1207 3 1120
1208 1 133
1208 2 977
1208 3 1120
1209 1 977
1209 2 976
1209 3 1120
1210 1 963
1210 2 857
1210 3 1121
1211 1 857
1211 2 970
1211 3 1121
1212 1 1031
1212 2 1244
1212 3 2155
1213 1 339
1213 2 340
1213 3 1122
1214 1 1121
1214 2 970
1214 3 1122
1215 1 969
1215 2 860
1215 3 1123
1216 1 860
1216 2 859
1216 3 1123
1217 1 327
1217 2 328
1217 3 1124
1218 1 328
1218 2 963
1218 3 1124
1219 1 963
1219 2 962
1219 3 1124
1220 1 944
1220 2 945
1220 3 1126
1221 1 945
1221 2 300
1221 3 1126
1222 1 68
1222 2 943
1222 3 1127
1223 1 13
1223 2 941
1223 3 1128
1224 1 941
1224 2 940
1224 3 1128
1225 1 19
1225 2 773
1225 3 1129
1226 1 773
1226 2 990
1226 3 1164
1227 1 940
1227 2 941
1227 3 1129
1228 1 941
1228 2 933
1228 3 1129
1229 1 156
1229 2 157
1229 3 1132
1230 1 901
1230 2 900
1230 3 1133
1231 1 1003
1231 2 697
1231 3 1133
1232 1 900
1232 2 901
1232 3 1134
1233 1 901
1233 2 693
1233 3 1134
1234 1 693
1234 2 680
1234 3 1134
1235 1 890
1235 2 131
1235 3 1135
1236 1 131
1236 2 132
1236 3 1135
1237 1 132
1237 2 1120
1237 3 1135
1238 1 343
1238 2 344
1238 3 1136
1239 1 344
1239 2 762
1239 3 1136
1240 1 762
1240 2 877
1240 3 1136
1241 1 877
1241 2 876
1241 3 1136
1242 1 112
1242 2 114
1242 3 1137
1243 1 923
1243 2 1062
1243 3 1138
1244 1 1062
1244 2 939
1244 3 1138
1245 1 939
1245 2 248
1245 3 1138
1246 1 248
1246 2 249
1246 3 1138
1247 1 239
1247 2 240
1247 3 2154
1248 1 88
1248 2 89
1248 3 1141
1249 1 1022
1249 2 88
1249 3 1141
1250 1 231
1250 2 836
1250 3 1142
1251 1 836
1251 2 237
1251 3 1142
1252 1 289
1252 2 292
1252 3 2153
1253 1 293
1253 2 294
1253 3 1143
1254 1 294
1254 2 295
1254 3 2152
1255 1 257
1255 2 258
1255 3 1146
1256 1 256
1256 2 257
1256 3 1146
1257 1 261
1257 2 262
1257 3 1147
1258 1 260
1258 2 261
1258 3 2293
1259 1 1146
1259 2 258
1259 3 1148
1260 1 428
1260 2 429
1260 3 2151
1261 1 1096
1261 2 423
1261 3 1149
1262 1 1150
1262 2 1149
1262 3 427
1263 1 255
1263 2 256
1263 3 1151
1264 1 256
1264 2 1146
1264 3 1151
1265 1 1146
1265 2 1145
1265 3 1151
1266 1 949
1266 2 287
1266 3 1153
1267 1 287
1267 2 288
1267 3 1153
1268 1 288
1268 2 1152
1268 3 1153
1269 1 948
1269 2 949
1269 3 1154
1270 1 949
1270 2 1153
1270 3 1154
1271 1 1153
1271 2 1152
1271 3 1154
1272 1 1141
1272 2 89
1272 3 1156
1273 1 89
1273 2 90
1273 3 1156
1274 1 90
1274 2 91
1274 3 1156
1275 1 91
1275 2 1155
1275 3 1156
1276 1 900
1276 2 1134
1276 3 1159
1277 1 1133
1277 2 900
1277 3 1161
1278 1 1132
1278 2 1131
1278 3 1162
1279 1 1131
1279 2 1132
1279 3 1163
1280 1 1132
1280 2 157
1280 3 1163
1281 1 157
1281 2 158
1281 3 1163
1282 1 940
1282 2 1129
1282 3 1164
1283 1 1129
1283 2 773
1283 3 1164
1284 1 67
1284 2 1127
1284 3 1165
1285 1 849
1285 2 80
1285 3 1190
1286 1 301
1286 2 302
1286 3 1169
1287 1 302
1287 2 1168
1287 3 1169
1288 1 987
1288 2 779
1288 3 1173
1289 1 1174
1289 2 384
1289 3 1175
1290 1 384
1290 2 987
1290 3 1175
1291 1 987
1291 2 1173
1291 3 1175
1292 1 1172
1292 2 1220
1292 3 2148
1293 1 383
1293 2 1174
1293 3 1176
1294 1 1174
1294 2 1175
1294 3 1176
1295 1 95
1295 2 96
1295 3 1177
1296 1 1111
1296 2 95
1296 3 1178
1297 1 95
1297 2 1177
1297 3 1178
1298 1 1177
1298 2 1116
1298 3 1178
1299 1 1111
1299 2 1178
1299 3 1179
1300 1 1116
1300 2 1230
1300 3 2292
1301 1 1116
1301 2 1177
1301 3 1180
1302 1 1177
1302 2 981
1302 3 1180
1303 1 776
1303 2 121
1303 3 1207
1304 1 1098
1304 2 1099
1304 3 1181
1305 1 1099
1305 2 433
1305 3 1181
1306 1 844
1306 2 1096
1306 3 2137
1307 1 306
1307 2 307
1307 3 1183
1308 1 307
1308 2 781
1308 3 1183
1309 1 1094
1309 2 304
1309 3 1183
1310 1 1068
1310 2 1069
1310 3 1387
1311 1 1089
1311 2 358
1311 3 1184
1312 1 358
1312 2 359
1312 3 1184
1313 1 1086
1313 2 148
1313 3 1185
1314 1 148
1314 2 149
1314 3 1185
1315 1 149
1315 2 953
1315 3 1185
1316 1 953
1316 2 952
1316 3 1185
1317 1 450
1317 2 451
1317 3 1191
1318 1 1082
1318 2 449
1318 3 1318
1319 1 1081
1319 2 1082
1319 3 1188
1320 1 342
1320 2 343
1320 3 1285
1321 1 876
1321 2 1080
1321 3 1189
1322 1 80
1322 2 81
1322 3 1190
1323 1 2136
1323 2 1991
1323 3 1190
1324 1 451
1324 2 452
1324 3 1191
1325 1 452
1325 2 1066
1325 3 1191
1326 1 1187
1326 2 1318
1326 3 2135
1327 1 968
1327 2 862
1327 3 1193
1328 1 1062
1328 2 1205
1328 3 1236
1329 1 862
1329 2 1062
1329 3 1193
1330 1 1194
1330 2 831
1330 3 373
1331 1 1036
1331 2 831
1331 3 1195
1332 1 831
1332 2 1194
1332 3 1195
1333 1 1194
1333 2 374
1333 3 1195
1334 1 374
1334 2 1010
1334 3 1195
1335 1 1010
1335 2 1036
1335 3 1195
1336 1 1031
1336 2 1032
1336 3 1196
1337 1 1032
1337 2 1013
1337 3 1196
1338 1 1013
1338 2 1034
1338 3 1196
1339 1 32
1339 2 33
1339 3 1428
1340 1 1030
1340 2 1014
1340 3 1197
1341 1 1020
1341 2 65
1341 3 1198
1342 1 65
1342 2 66
1342 3 1198
1343 1 1165
1343 2 1328
1343 3 2134
1344 1 1112
1344 2 1025
1344 3 1198
1345 1 1199
1345 2 997
1345 3 998
1346 1 117
1346 2 724
1346 3 1200
1347 1 724
1347 2 777
1347 3 1200
1348 1 777
1348 2 989
1348 3 1200
1349 1 1137
1349 2 115
1349 3 1201
1350 1 1201
1350 2 1202
1350 3 116
1351 1 116
1351 2 1200
1351 3 1201
1352 1 989
1352 2 868
1352 3 2133
1353 1 1202
1353 2 1201
1353 3 115
1354 1 150
1354 2 152
1354 3 1204
1355 1 152
1355 2 153
1355 3 1204
1356 1 153
1356 2 1203
1356 3 1204
1357 1 953
1357 2 150
1357 3 1204
1358 1 254
1358 2 255
1358 3 1205
1359 1 255
1359 2 1151
1359 3 1205
1360 1 1062
1360 2 923
1360 3 1205
1361 1 108
1361 2 111
1361 3 1206
1362 1 111
1362 2 112
1362 3 1206
1363 1 112
1363 2 1137
1363 3 1206
1364 1 1137
1364 2 868
1364 3 1206
1365 1 868
1365 2 866
1365 3 1206
1366 1 121
1366 2 122
1366 3 1207
1367 1 334
1367 2 336
1367 3 1208
1368 1 336
1368 2 337
1368 3 1208
1369 1 337
1369 2 338
1369 3 1222
1370 1 970
1370 2 331
1370 3 1208
1371 1 331
1371 2 333
1371 3 1208
1372 1 436
1372 2 437
1372 3 1209
1373 1 437
1373 2 1117
1373 3 1209
1374 1 1119
1374 2 435
1374 3 1209
1375 1 1035
1375 2 1010
1375 3 2132
1376 1 1011
1376 2 379
1376 3 1212
1377 1 379
1377 2 1211
1377 3 1212
1378 1 1211
1378 2 1210
1378 3 1212
1379 1 1210
1379 2 1211
1379 3 1213
1380 1 1211
1380 2 380
1380 3 1213
1381 1 380
1381 2 381
1381 3 1213
1382 1 1210
1382 2 1213
1382 3 1215
1383 1 1210
1383 2 1215
1383 3 1216
1384 1 1215
1384 2 1214
1384 3 1216
1385 1 382
1385 2 383
1385 3 1220
1386 1 1214
1386 2 1215
1386 3 1217
1387 1 1215
1387 2 1213
1387 3 1217
1388 1 1214
1388 2 1217
1388 3 1218
1389 1 1217
1389 2 1172
1389 3 1218
1390 1 1172
1390 2 1171
1390 3 1218
1391 1 1214
1391 2 1218
1391 3 1219
1392 1 1218
1392 2 1171
1392 3 1219
1393 1 1172
1393 2 1217
1393 3 1220
1394 1 1217
1394 2 1213
1394 3 1220
1395 1 1213
1395 2 381
1395 3 1220
1396 1 381
1396 2 382
1396 3 1220
1397 1 1118
1397 2 1119
1397 3 1221
1398 1 1119
1398 2 1209
1398 3 1221
1399 1 1209
1399 2 1117
1399 3 1221
1400 1 338
1400 2 339
1400 3 1222
1401 1 339
1401 2 1122
1401 3 1222
1402 1 1122
1402 2 970
1402 3 1222
1403 1 970
1403 2 1208
1403 3 1222
1404 1 1208
1404 2 337
1404 3 1222
1405 1 1224
1405 2 1226
1405 3 1228
1406 1 1207
1406 2 122
1406 3 1223
1407 1 988
1407 2 776
1407 3 1229
1408 1 1207
1408 2 1223
1408 3 1224
1409 1 1180
1409 2 981
1409 3 1225
1410 1 846
1410 2 98
1410 3 1226
1411 1 1224
1411 2 1223
1411 3 1225
1412 1 1223
1412 2 1180
1412 3 1225
1413 1 1224
1413 2 1225
1413 3 1226
1414 1 1225
1414 2 981
1414 3 1226
1415 1 981
1415 2 846
1415 3 1226
1416 1 1226
1416 2 98
1416 3 1228
1417 1 98
1417 2 1227
1417 3 1228
1418 1 1227
1418 2 99
1418 3 1228
1419 1 776
1419 2 1207
1419 3 1229
1420 1 1207
1420 2 1224
1420 3 1229
1421 1 1224
1421 2 1228
1421 3 1229
1422 1 1228
1422 2 99
1422 3 1229
1423 1 99
1423 2 100
1423 3 1229
1424 1 100
1424 2 988
1424 3 1229
1425 1 1116
1425 2 1180
1425 3 1230
1426 1 1180
1426 2 1223
1426 3 1230
1427 1 1230
1427 2 1231
1427 3 123
1428 1 1231
1428 2 1223
1428 3 122
1429 1 1231
1429 2 1230
1429 3 1223
1430 1 1151
1430 2 1145
1430 3 1233
1431 1 1192
1431 2 1193
1431 3 1237
1432 1 1232
1432 2 1151
1432 3 1233
1433 1 1233
1433 2 1145
1433 3 1235
1434 1 1205
1434 2 1151
1434 3 1236
1435 1 1151
1435 2 1232
1435 3 1236
1436 1 1193
1436 2 1062
1436 3 1237
1437 1 1062
1437 2 1236
1437 3 1237
1438 1 1236
1438 2 1232
1438 3 1237
1439 1 1192
1439 2 1237
1439 3 1238
1440 1 1237
1440 2 1232
1440 3 1238
1441 1 1235
1441 2 1718
1441 3 2124
1442 1 155
1442 2 156
1442 3 2291
1443 1 153
1443 2 154
1443 3 1240
1444 1 1203
1444 2 153
1444 3 1240
1445 1 1239
1445 2 1240
1445 3 1241
1446 1 1240
1446 2 154
1446 3 1241
1447 1 154
1447 2 155
1447 3 1241
1448 1 1031
1448 2 1196
1448 3 1243
1449 1 1031
1449 2 1243
1449 3 1244
1450 1 961
1450 2 1244
1450 3 1245
1451 1 1244
1451 2 1243
1451 3 2123
1452 1 1242
1452 2 1243
1452 3 1246
1453 1 1196
1453 2 1034
1453 3 2290
1454 1 859
1454 2 860
1454 3 1247
1455 1 860
1455 2 968
1455 3 1247
1456 1 968
1456 2 1193
1456 3 1247
1457 1 1193
1457 2 1192
1457 3 1247
1458 1 859
1458 2 1247
1458 3 1250
1459 1 859
1459 2 1250
1459 3 1251
1460 1 1250
1460 2 1249
1460 3 1251
1461 1 1123
1461 2 859
1461 3 1252
1462 1 859
1462 2 1251
1462 3 1252
1463 1 1249
1463 2 1250
1463 3 1253
1464 1 1250
1464 2 1247
1464 3 1253
1465 1 1247
1465 2 1192
1465 3 1253
1466 1 1248
1466 2 2039
1466 3 2042
1467 1 1249
1467 2 1253
1467 3 1254
1468 1 1113
1468 2 1005
1468 3 1258
1469 1 1258
1469 2 1257
1469 3 1260
1470 1 1257
1470 2 1258
1470 3 1261
1471 1 1258
1471 2 1005
1471 3 1261
1472 1 1005
1472 2 1006
1472 3 1261
1473 1 1261
1473 2 1006
1473 3 1263
1474 1 1257
1474 2 1261
1474 3 1264
1475 1 1261
1475 2 1263
1475 3 1264
1476 1 1263
1476 2 1262
1476 3 1264
1477 1 1256
1477 2 1252
1477 3 2041
1478 1 1264
1478 2 1262
1478 3 1265
1479 1 1262
1479 2 1263
1479 3 1266
1480 1 1263
1480 2 1006
1480 3 2037
1481 1 1191
1481 2 1066
1481 3 1268
1482 1 1191
1482 2 1268
1482 3 1269
1483 1 1268
1483 2 1267
1483 3 1269
1484 1 1267
1484 2 1268
1484 3 1270
1485 1 1268
1485 2 1066
1485 3 1270
1486 1 1066
1486 2 918
1486 3 1270
1487 1 918
1487 2 917
1487 3 1270
1488 1 1270
1488 2 917
1488 3 1272
1489 1 1271
1489 2 1272
1489 3 1273
1490 1 1272
1490 2 917
1490 3 1273
1491 1 916
1491 2 1273
1491 3 1275
1492 1 1275
1492 2 1274
1492 3 1277
1493 1 916
1493 2 1275
1493 3 1278
1494 1 1275
1494 2 1277
1494 3 1278
1495 1 1277
1495 2 1276
1495 3 1278
1496 1 1130
1496 2 2004
1496 3 2006
1497 1 1278
1497 2 1276
1497 3 1279
1498 1 1276
1498 2 1282
1498 3 2033
1499 1 952
1499 2 953
1499 3 2035
1500 1 1276
1500 2 1277
1500 3 1280
1501 1 951
1501 2 1280
1501 3 1281
1502 1 1280
1502 2 1277
1502 3 2036
1503 1 1276
1503 2 1280
1503 3 1282
1504 1 1280
1504 2 951
1504 3 1282
1505 1 1274
1505 2 1275
1505 3 1283
1506 1 1273
1506 2 917
1506 3 2026
1507 1 1189
1507 2 1080
1507 3 1284
1508 1 1080
1508 2 838
1508 3 1284
1509 1 838
1509 2 1069
1509 3 1284
1510 1 343
1510 2 1136
1510 3 1285
1511 1 1136
1511 2 876
1511 3 1285
1512 1 876
1512 2 1189
1512 3 1285
1513 1 1034
1513 2 342
1513 3 1285
1514 1 1188
1514 2 1187
1514 3 1286
1515 1 1187
1515 2 1269
1515 3 1286
1516 1 1105
1516 2 1081
1516 3 1290
1517 1 1188
1517 2 1286
1517 3 1289
1518 1 1286
1518 2 1186
1518 3 1288
1519 1 1286
1519 2 1288
1519 3 1289
1520 1 1288
1520 2 1287
1520 3 1289
1521 1 1081
1521 2 1188
1521 3 1290
1522 1 1188
1522 2 1289
1522 3 1290
1523 1 1289
1523 2 1287
1523 3 1290
1524 1 864
1524 2 1105
1524 3 1291
1525 1 1105
1525 2 1290
1525 3 1291
1526 1 1290
1526 2 1287
1526 3 1291
1527 1 1291
1527 2 1287
1527 3 1294
1528 1 1291
1528 2 1294
1528 3 1295
1529 1 1294
1529 2 1293
1529 3 1295
1530 1 1293
1530 2 1294
1530 3 1296
1531 1 1294
1531 2 1287
1531 3 1296
1532 1 1287
1532 2 1288
1532 3 1296
1533 1 1296
1533 2 1288
1533 3 1298
1534 1 1293
1534 2 1296
1534 3 1300
1535 1 1298
1535 2 1297
1535 3 1299
1536 1 1296
1536 2 1298
1536 3 1300
1537 1 1298
1537 2 1299
1537 3 1300
1538 1 1299
1538 2 1292
1538 3 1300
1539 1 1292
1539 2 1293
1539 3 1300
1540 1 1299
1540 2 1297
1540 3 1305
1541 1 1292
1541 2 1299
1541 3 1303
1542 1 1303
1542 2 1302
1542 3 1304
1543 1 1302
1543 2 1301
1543 3 1304
1544 1 1302
1544 2 1303
1544 3 1305
1545 1 1303
1545 2 1299
1545 3 1305
1546 1 1302
1546 2 1305
1546 3 1306
1547 1 1305
1547 2 1297
1547 3 1306
1548 1 1298
1548 2 1288
1548 3 1308
1549 1 1288
1549 2 1186
1549 3 1308
1550 1 1297
1550 2 1298
1550 3 1309
1551 1 1298
1551 2 1308
1551 3 1309
1552 1 1308
1552 2 1307
1552 3 1309
1553 1 1306
1553 2 1297
1553 3 1316
1554 1 1309
1554 2 1307
1554 3 1310
1555 1 1307
1555 2 1308
1555 3 1311
1556 1 1308
1556 2 1186
1556 3 1311
1557 1 1130
1557 2 2003
1557 3 2004
1558 1 1307
1558 2 1311
1558 3 1312
1559 1 1311
1559 2 1186
1559 3 1313
1560 1 1186
1560 2 1286
1560 3 1315
1561 1 1267
1561 2 1270
1561 3 1314
1562 1 1312
1562 2 1311
1562 3 1313
1563 1 1270
1563 2 1272
1563 3 1314
1564 1 1272
1564 2 1271
1564 3 1314
1565 1 1271
1565 2 1312
1565 3 1314
1566 1 1312
1566 2 1313
1566 3 1314
1567 1 1313
1567 2 1267
1567 3 1314
1568 1 1286
1568 2 1269
1568 3 1315
1569 1 1269
1569 2 1267
1569 3 1315
1570 1 1267
1570 2 1313
1570 3 1315
1571 1 1313
1571 2 1186
1571 3 1315
1572 1 1297
1572 2 1309
1572 3 1316
1573 1 1309
1573 2 1310
1573 3 1316
1574 1 1316
1574 2 1310
1574 3 1994
1575 1 1187
1575 2 1188
1575 3 1318
1576 1 1188
1576 2 1082
1576 3 1318
1577 1 834
1577 2 1086
1577 3 1993
1578 1 1086
1578 2 1185
1578 3 1319
1579 1 1168
1579 2 302
1579 3 1992
1580 1 1094
1580 2 1183
1580 3 1320
1581 1 1127
1581 2 943
1581 3 1322
1582 1 942
1582 2 980
1582 3 1323
1583 1 943
1583 2 942
1583 3 1322
1584 1 1321
1584 2 1165
1584 3 1322
1585 1 1165
1585 2 1127
1585 3 1322
1586 1 980
1586 2 849
1586 3 1323
1587 1 1321
1587 2 1322
1587 3 1323
1588 1 1322
1588 2 942
1588 3 1323
1589 1 1321
1589 2 1323
1589 3 1324
1590 1 1323
1590 2 849
1590 3 1324
1591 1 849
1591 2 1190
1591 3 1324
1592 1 1079
1592 2 879
1592 3 1327
1593 1 1325
1593 2 1324
1593 3 1326
1594 1 1324
1594 2 1190
1594 3 1326
1595 1 879
1595 2 878
1595 3 1327
1596 1 1325
1596 2 1326
1596 3 1327
1597 1 1326
1597 2 1079
1597 3 1327
1598 1 1321
1598 2 1324
1598 3 1330
1599 1 1325
1599 2 1327
1599 3 1329
1600 1 1014
1600 2 1112
1600 3 1328
1601 1 1327
1601 2 878
1601 3 1329
1602 1 878
1602 2 1197
1602 3 1329
1603 1 1197
1603 2 1014
1603 3 1329
1604 1 1014
1604 2 1328
1604 3 1329
1605 1 1328
1605 2 1325
1605 3 1329
1606 1 1324
1606 2 1325
1606 3 1330
1607 1 1325
1607 2 1328
1607 3 1330
1608 1 1328
1608 2 1165
1608 3 1330
1609 1 1165
1609 2 1321
1609 3 1330
1610 1 1154
1610 2 1152
1610 3 1331
1611 1 1145
1611 2 1146
1611 3 1332
1612 1 1146
1612 2 1148
1612 3 1332
1613 1 1148
1613 2 1144
1613 3 1332
1614 1 1235
1614 2 1145
1614 3 1990
1615 1 1332
1615 2 1144
1615 3 1333
1616 1 262
1616 2 263
1616 3 1388
1617 1 1333
1617 2 1144
1617 3 2289
1618 1 230
1618 2 1142
1618 3 1336
1619 1 230
1619 2 1336
1619 3 1337
1620 1 1336
1620 2 1335
1620 3 1337
1621 1 1335
1621 2 1336
1621 3 1338
1622 1 1336
1622 2 1142
1622 3 1338
1623 1 1142
1623 2 237
1623 3 1338
1624 1 1338
1624 2 1989
1624 3 238
1625 1 888
1625 2 1934
1625 3 1988
1626 1 1063
1626 2 1064
1626 3 1342
1627 1 12
1627 2 13
1627 3 1987
1628 1 934
1628 2 11
1628 3 1341
1629 1 1064
1629 2 934
1629 3 1342
1630 1 934
1630 2 1341
1630 3 1342
1631 1 832
1631 2 1353
1631 3 1354
1632 1 1342
1632 2 1341
1632 3 1344
1633 1 1063
1633 2 1342
1633 3 1345
1634 1 1342
1634 2 1344
1634 3 1345
1635 1 1344
1635 2 1343
1635 3 1345
1636 1 1345
1636 2 1343
1636 3 1347
1637 1 1063
1637 2 1345
1637 3 1347
1638 1 1347
1638 2 1343
1638 3 1349
1639 1 1346
1639 2 1347
1639 3 1350
1640 1 1347
1640 2 1349
1640 3 1350
1641 1 1349
1641 2 1348
1641 3 1350
1642 1 1346
1642 2 1350
1642 3 1351
1643 1 1346
1643 2 1351
1643 3 1352
1644 1 833
1644 2 1993
1644 3 2288
1645 1 1348
1645 2 1349
1645 3 1353
1646 1 1353
1646 2 1349
1646 3 1354
1647 1 1349
1647 2 1343
1647 3 1354
1648 1 832
1648 2 1354
1648 3 1356
1649 1 1344
1649 2 1341
1649 3 1375
1650 1 1348
1650 2 1353
1650 3 1357
1651 1 1051
1651 2 1053
1651 3 2184
1652 1 1356
1652 2 1355
1652 3 1359
1653 1 1359
1653 2 1355
1653 3 1361
1654 1 1358
1654 2 1359
1654 3 1361
1655 1 1358
1655 2 1361
1655 3 1362
1656 1 1361
1656 2 1360
1656 3 1362
1657 1 1362
1657 2 1360
1657 3 1363
1658 1 1361
1658 2 1355
1658 3 1365
1659 1 1360
1659 2 1361
1659 3 1366
1660 1 1361
1660 2 1365
1660 3 1366
1661 1 1365
1661 2 1364
1661 3 1366
1662 1 1366
1662 2 1364
1662 3 1368
1663 1 1364
1663 2 1365
1663 3 1369
1664 1 1364
1664 2 1369
1664 3 1370
1665 1 1369
1665 2 1340
1665 3 1370
1666 1 1128
1666 2 1370
1666 3 1371
1667 1 1370
1667 2 1340
1667 3 1371
1668 1 1341
1668 2 11
1668 3 1981
1669 1 1368
1669 2 1364
1669 3 1944
1670 1 1370
1670 2 1128
1670 3 1372
1671 1 1128
1671 2 940
1671 3 1372
1672 1 1369
1672 2 1365
1672 3 1374
1673 1 1355
1673 2 1356
1673 3 1373
1674 1 1356
1674 2 1354
1674 3 1373
1675 1 1354
1675 2 1343
1675 3 1373
1676 1 1343
1676 2 1344
1676 3 1373
1677 1 1365
1677 2 1355
1677 3 1374
1678 1 1355
1678 2 1373
1678 3 1374
1679 1 1340
1679 2 1369
1679 3 1374
1680 1 1341
1680 2 1340
1680 3 1375
1681 1 1340
1681 2 1374
1681 3 1375
1682 1 1374
1682 2 1373
1682 3 1375
1683 1 1373
1683 2 1344
1683 3 1375
1684 1 965
1684 2 325
1684 3 1376
1685 1 325
1685 2 326
1685 3 1376
1686 1 962
1686 2 961
1686 3 1941
1687 1 997
1687 2 1115
1687 3 1377
1688 1 1115
1688 2 719
1688 3 1378
1689 1 958
1689 2 1113
1689 3 1379
1690 1 1113
1690 2 1258
1690 3 1380
1691 1 1258
1691 2 1260
1691 3 1380
1692 1 1260
1692 2 1259
1692 3 1380
1693 1 1259
1693 2 1379
1693 3 1380
1694 1 1379
1694 2 1113
1694 3 1380
1695 1 1381
1695 2 2209
1695 3 56
1696 1 56
1696 2 1106
1696 3 1381
1697 1 1106
1697 2 1077
1697 3 1381
1698 1 1077
1698 2 769
1698 3 1381
1699 1 1384
1699 2 1919
1699 3 430
1700 1 1098
1700 2 1097
1700 3 1383
1701 1 430
1701 2 1098
1701 3 1384
1702 1 1098
1702 2 1383
1702 3 1384
1703 1 1383
1703 2 1382
1703 3 1384
1704 1 1382
1704 2 1383
1704 3 1385
1705 1 1383
1705 2 1097
1705 3 1385
1706 1 1102
1706 2 429
1706 3 1386
1707 1 429
1707 2 1384
1707 3 1386
1708 1 1384
1708 2 1382
1708 3 1386
1709 1 1095
1709 2 1089
1709 3 1918
1710 1 263
1710 2 1093
1710 3 1388
1711 1 354
1711 2 1095
1711 3 1389
1712 1 1387
1712 2 1069
1712 3 1389
1713 1 414
1713 2 1104
1713 3 1390
1714 1 1104
1714 2 1084
1714 3 1390
1715 1 1084
1715 2 411
1715 3 1390
1716 1 411
1716 2 413
1716 3 1390
1717 1 1074
1717 2 670
1717 3 1392
1718 1 842
1718 2 1085
1718 3 1393
1719 1 1085
1719 2 1083
1719 3 1393
1720 1 1391
1720 2 1392
1720 3 1393
1721 1 1392
1721 2 670
1721 3 1393
1722 1 670
1722 2 842
1722 3 1393
1723 1 1391
1723 2 1393
1723 3 1394
1724 1 1393
1724 2 1083
1724 3 1394
1725 1 1083
1725 2 1084
1725 3 1903
1726 1 1071
1726 2 362
1726 3 1395
1727 1 1395
1727 2 1396
1727 3 363
1728 1 363
1728 2 1070
1728 3 1395
1729 1 1070
1729 2 1067
1729 3 1395
1730 1 1396
1730 2 1395
1730 3 362
1731 1 914
1731 2 913
1731 3 1902
1732 1 2
1732 2 1398
1732 3 1399
1733 1 1398
1733 2 1064
1733 3 1399
1734 1 1064
1734 2 1063
1734 3 1399
1735 1 1060
1735 2 1009
1735 3 1400
1736 1 188
1736 2 190
1736 3 1894
1737 1 946
1737 2 1060
1737 3 1401
1738 1 1060
1738 2 1400
1738 3 1401
1739 1 1057
1739 2 1058
1739 3 1402
1740 1 1058
1740 2 396
1740 3 1402
1741 1 1057
1741 2 1402
1741 3 1403
1742 1 1402
1742 2 954
1742 3 1403
1743 1 1057
1743 2 1403
1743 3 1406
1744 1 935
1744 2 1058
1744 3 2287
1745 1 1406
1745 2 1405
1745 3 1408
1746 1 1408
1746 2 1405
1746 3 1410
1747 1 1406
1747 2 1403
1747 3 1412
1748 1 1405
1748 2 1406
1748 3 1412
1749 1 1411
1749 2 1412
1749 3 1891
1750 1 1403
1750 2 954
1750 3 1416
1751 1 905
1751 2 903
1751 3 1414
1752 1 1413
1752 2 1414
1752 3 1415
1753 1 1414
1753 2 903
1753 3 1415
1754 1 903
1754 2 904
1754 3 2286
1755 1 954
1755 2 905
1755 3 1416
1756 1 905
1756 2 1414
1756 3 1416
1757 1 1414
1757 2 1413
1757 3 1416
1758 1 1412
1758 2 1403
1758 3 1416
1759 1 168
1759 2 169
1759 3 1418
1760 1 167
1760 2 168
1760 3 1420
1761 1 168
1761 2 1418
1761 3 1420
1762 1 1418
1762 2 1419
1762 3 1420
1763 1 966
1763 2 1016
1763 3 1890
1764 1 1417
1764 2 1418
1764 3 1421
1765 1 169
1765 2 1040
1765 3 1889
1766 1 1417
1766 2 1421
1766 3 1424
1767 1 713
1767 2 1829
1767 3 1830
1768 1 1421
1768 2 1038
1768 3 1423
1769 1 1421
1769 2 1423
1769 3 1424
1770 1 1423
1770 2 1422
1770 3 1424
1771 1 1417
1771 2 1424
1771 3 1425
1772 1 1424
1772 2 1422
1772 3 1425
1773 1 1423
1773 2 1038
1773 3 1426
1774 1 1038
1774 2 1039
1774 3 1426
1775 1 1039
1775 2 714
1775 3 1426
1776 1 64
1776 2 65
1776 3 1888
1777 1 1020
1777 2 1026
1777 3 1427
1778 1 33
1778 2 1030
1778 3 1428
1779 1 1030
1779 2 1197
1779 3 1428
1780 1 32
1780 2 1428
1780 3 1429
1781 1 1428
1781 2 1197
1781 3 1429
1782 1 1197
1782 2 878
1782 3 1429
1783 1 1076
1783 2 31
1783 3 1885
1784 1 727
1784 2 728
1784 3 1430
1785 1 728
1785 2 995
1785 3 1430
1786 1 995
1786 2 886
1786 3 1430
1787 1 727
1787 2 1430
1787 3 1431
1788 1 1430
1788 2 886
1788 3 1431
1789 1 886
1789 2 1337
1789 3 1431
1790 1 1337
1790 2 1335
1790 3 1431
1791 1 1431
1791 2 1335
1791 3 1433
1792 1 727
1792 2 1431
1792 3 1434
1793 1 1431
1793 2 1433
1793 3 1434
1794 1 1433
1794 2 1432
1794 3 1434
1795 1 993
1795 2 727
1795 3 1435
1796 1 727
1796 2 1434
1796 3 1435
1797 1 1434
1797 2 1432
1797 3 1435
1798 1 1432
1798 2 1433
1798 3 1436
1799 1 1139
1799 2 1436
1799 3 1437
1800 1 1433
1800 2 1335
1800 3 1438
1801 1 1338
1801 2 238
1801 3 1437
1802 1 1335
1802 2 1338
1802 3 1438
1803 1 1338
1803 2 1437
1803 3 1438
1804 1 1437
1804 2 1436
1804 3 1438
1805 1 1436
1805 2 1433
1805 3 1438
1806 1 1432
1806 2 1436
1806 3 1439
1807 1 1139
1807 2 840
1807 3 1873
1808 1 684
1808 2 825
1808 3 1440
1809 1 825
1809 2 967
1809 3 1440
1810 1 280
1810 2 281
1810 3 1442
1811 1 281
1811 2 1072
1811 3 1442
1812 1 1072
1812 2 734
1812 3 1442
1813 1 734
1813 2 274
1813 3 1442
1814 1 274
1814 2 279
1814 3 1442
1815 1 683
1815 2 1440
1815 3 1445
1816 1 1440
1816 2 1441
1816 3 1445
1817 1 1304
1817 2 1301
1817 3 1448
1818 1 1304
1818 2 1448
1818 3 1449
1819 1 1448
1819 2 1447
1819 3 1449
1820 1 1447
1820 2 1448
1820 3 1450
1821 1 1448
1821 2 1301
1821 3 1450
1822 1 1447
1822 2 1450
1822 3 1451
1823 1 1451
1823 2 1450
1823 3 1452
1824 1 1452
1824 2 1443
1824 3 1454
1825 1 1425
1825 2 1463
1825 3 1464
1826 1 1451
1826 2 1452
1826 3 1455
1827 1 1452
1827 2 1454
1827 3 1455
1828 1 1454
1828 2 1453
1828 3 1455
1829 1 1455
1829 2 1453
1829 3 1457
1830 1 1446
1830 2 1451
1830 3 1458
1831 1 1451
1831 2 1455
1831 3 1458
1832 1 1455
1832 2 1457
1832 3 1458
1833 1 1458
1833 2 1457
1833 3 2285
1834 1 1457
1834 2 1453
1834 3 1461
1835 1 712
1835 2 1460
1835 3 1462
1836 1 1460
1836 2 1461
1836 3 1462
1837 1 1425
1837 2 1422
1837 3 1463
1838 1 1463
1838 2 1462
1838 3 1464
1839 1 1462
1839 2 1461
1839 3 1464
1840 1 1461
1840 2 1453
1840 3 1464
1841 1 1419
1841 2 1418
1841 3 1473
1842 1 1425
1842 2 1464
1842 3 1466
1843 1 1417
1843 2 1425
1843 3 1467
1844 1 1425
1844 2 1466
1844 3 1467
1845 1 1466
1845 2 1465
1845 3 1467
1846 1 1441
1846 2 1440
1846 3 1472
1847 1 1444
1847 2 1445
1847 3 1469
1848 1 1465
1848 2 1466
1848 3 1468
1849 1 1466
1849 2 1464
1849 3 1468
1850 1 1464
1850 2 1453
1850 3 1468
1851 1 1453
1851 2 1454
1851 3 1468
1852 1 1445
1852 2 1441
1852 3 1469
1853 1 1441
1853 2 1465
1853 3 1469
1854 1 1465
1854 2 1468
1854 3 1469
1855 1 1454
1855 2 1443
1855 3 1471
1856 1 966
1856 2 1419
1856 3 1470
1857 1 1467
1857 2 1465
1857 3 1470
1858 1 1465
1858 2 1441
1858 3 1470
1859 1 1443
1859 2 1444
1859 3 1471
1860 1 1444
1860 2 1469
1860 3 1471
1861 1 1469
1861 2 1468
1861 3 1471
1862 1 1468
1862 2 1454
1862 3 1471
1863 1 1440
1863 2 967
1863 3 1472
1864 1 967
1864 2 966
1864 3 1472
1865 1 966
1865 2 1470
1865 3 1472
1866 1 1470
1866 2 1441
1866 3 1472
1867 1 1418
1867 2 1417
1867 3 1473
1868 1 1417
1868 2 1467
1868 3 1473
1869 1 1467
1869 2 1470
1869 3 1473
1870 1 1470
1870 2 1419
1870 3 1473
1871 1 1457
1871 2 1461
1871 3 1474
1872 1 1461
1872 2 1460
1872 3 1474
1873 1 1456
1873 2 1474
1873 3 1475
1874 1 1474
1874 2 1460
1874 3 1475
1875 1 1475
1875 2 1460
1875 3 1476
1876 1 1460
1876 2 712
1876 3 1476
1877 1 1456
1877 2 1475
1877 3 1478
1878 1 1475
1878 2 1476
1878 3 1480
1879 1 1479
1879 2 1478
1879 3 1480
1880 1 1478
1880 2 1475
1880 3 1480
1881 1 1479
1881 2 1480
1881 3 1481
1882 1 1480
1882 2 1476
1882 3 1481
1883 1 1479
1883 2 1481
1883 3 1483
1884 1 1478
1884 2 1479
1884 3 2284
1885 1 1483
1885 2 1482
1885 3 1485
1886 1 1484
1886 2 1479
1886 3 1485
1887 1 1479
1887 2 1483
1887 3 1485
1888 1 1485
1888 2 1482
1888 3 1487
1889 1 1484
1889 2 1485
1889 3 1488
1890 1 1485
1890 2 1487
1890 3 1488
1891 1 1487
1891 2 1486
1891 3 1488
1892 1 1488
1892 2 1486
1892 3 1490
1893 1 1477
1893 2 1484
1893 3 1491
1894 1 1484
1894 2 1488
1894 3 1491
1895 1 1488
1895 2 1490
1895 3 1491
1896 1 1490
1896 2 1489
1896 3 1491
1897 1 1491
1897 2 1489
1897 3 1493
1898 1 1101
1898 2 1102
1898 3 2283
1899 1 1492
1899 2 1493
1899 3 1494
1900 1 1493
1900 2 1489
1900 3 1494
1901 1 1490
1901 2 1486
1901 3 1496
1902 1 1489
1902 2 1490
1902 3 1496
1903 1 1496
1903 2 1486
1903 3 1498
1904 1 1497
1904 2 1498
1904 3 1499
1905 1 1498
1905 2 1486
1905 3 1499
1906 1 1157
1906 2 1499
1906 3 1500
1907 1 1499
1907 2 1486
1907 3 1500
1908 1 1486
1908 2 1487
1908 3 1500
1909 1 1157
1909 2 1500
1909 3 1501
1910 1 1487
1910 2 1482
1910 3 1503
1911 1 1497
1911 2 1499
1911 3 1502
1912 1 1499
1912 2 1157
1912 3 1502
1913 1 1501
1913 2 1500
1913 3 1503
1914 1 1500
1914 2 1487
1914 3 1503
1915 1 1391
1915 2 1394
1915 3 1506
1916 1 1391
1916 2 1506
1916 3 1507
1917 1 1506
1917 2 1505
1917 3 1507
1918 1 1505
1918 2 1509
1918 3 1511
1919 1 1505
1919 2 1506
1919 3 1508
1920 1 1506
1920 2 1394
1920 3 1508
1921 1 1505
1921 2 1508
1921 3 1509
1922 1 1508
1922 2 1394
1922 3 1904
1923 1 1104
1923 2 415
1923 3 1908
1924 1 1504
1924 2 1509
1924 3 1510
1925 1 1509
1925 2 1504
1925 3 1511
1926 1 1497
1926 2 1502
1926 3 1513
1927 1 1495
1927 2 1496
1927 3 2282
1928 1 1497
1928 2 1513
1928 3 1514
1929 1 1158
1929 2 1159
1929 3 1526
1930 1 1512
1930 2 1513
1930 3 1819
1931 1 1502
1931 2 1157
1931 3 1818
1932 1 1518
1932 2 1515
1932 3 1521
1933 1 1517
1933 2 1518
1933 3 1522
1934 1 1518
1934 2 1521
1934 3 1522
1935 1 1521
1935 2 1520
1935 3 1522
1936 1 1521
1936 2 1515
1936 3 1524
1937 1 1520
1937 2 1521
1937 3 1524
1938 1 1524
1938 2 1515
1938 3 1525
1939 1 1525
1939 2 1526
1939 3 1527
1940 1 1159
1940 2 1134
1940 3 1529
1941 1 1523
1941 2 1524
1941 3 2281
1942 1 1525
1942 2 1527
1942 3 1528
1943 1 679
1943 2 1527
1943 3 1529
1944 1 1527
1944 2 1526
1944 3 1529
1945 1 1526
1945 2 1159
1945 3 1529
1946 1 1522
1946 2 1520
1946 3 1530
1947 1 1511
1947 2 1504
1947 3 1551
1948 1 1522
1948 2 1530
1948 3 1531
1949 1 1530
1949 2 1519
1949 3 1531
1950 1 1519
1950 2 1530
1950 3 1532
1951 1 1530
1951 2 1520
1951 3 1532
1952 1 1532
1952 2 1520
1952 3 1533
1953 1 1520
1953 2 1524
1953 3 1533
1954 1 1524
1954 2 1523
1954 3 1533
1955 1 1532
1955 2 1533
1955 3 1817
1956 1 1519
1956 2 1532
1956 3 1537
1957 1 1537
1957 2 1536
1957 3 1539
1958 1 1519
1958 2 1537
1958 3 1540
1959 1 1537
1959 2 1539
1959 3 1540
1960 1 1539
1960 2 1538
1960 3 1540
1961 1 1531
1961 2 1519
1961 3 1554
1962 1 1540
1962 2 1538
1962 3 1541
1963 1 1538
1963 2 1542
1963 3 1552
1964 1 1542
1964 2 1538
1964 3 1543
1965 1 1538
1965 2 1539
1965 3 1543
1966 1 1539
1966 2 1536
1966 3 1543
1967 1 1541
1967 2 1538
1967 3 1545
1968 1 1541
1968 2 1545
1968 3 1546
1969 1 1545
1969 2 1073
1969 3 1546
1970 1 1392
1970 2 1391
1970 3 1547
1971 1 1391
1971 2 1507
1971 3 1547
1972 1 1507
1972 2 1546
1972 3 1547
1973 1 1546
1973 2 1073
1973 3 1547
1974 1 1073
1974 2 1074
1974 3 1547
1975 1 1074
1975 2 1392
1975 3 1547
1976 1 1531
1976 2 1541
1976 3 1548
1977 1 1541
1977 2 1546
1977 3 1548
1978 1 1546
1978 2 1507
1978 3 1548
1979 1 1531
1979 2 1548
1979 3 1549
1980 1 1548
1980 2 1507
1980 3 1550
1981 1 1507
1981 2 1505
1981 3 1550
1982 1 1505
1982 2 1511
1982 3 1550
1983 1 1511
1983 2 1549
1983 3 1550
1984 1 1549
1984 2 1548
1984 3 1550
1985 1 1504
1985 2 1512
1985 3 1551
1986 1 1517
1986 2 1522
1986 3 1553
1987 1 1549
1987 2 1511
1987 3 1551
1988 1 1542
1988 2 1415
1988 3 1552
1989 1 1415
1989 2 1073
1989 3 1552
1990 1 1073
1990 2 1545
1990 3 1552
1991 1 1545
1991 2 1538
1991 3 1552
1992 1 1522
1992 2 1531
1992 3 1553
1993 1 1531
1993 2 1549
1993 3 1553
1994 1 1549
1994 2 1551
1994 3 1553
1995 1 1551
1995 2 1512
1995 3 1553
1996 1 1519
1996 2 1540
1996 3 1554
1997 1 1540
1997 2 1541
1997 3 1554
1998 1 1541
1998 2 1531
1998 3 1554
1999 1 1536
1999 2 1537
1999 3 1555
2000 1 1535
2000 2 1555
2000 3 1556
2001 1 1537
2001 2 1532
2001 3 1557
2002 1 1556
2002 2 1555
2002 3 1557
2003 1 1555
2003 2 1537
2003 3 1557
2004 1 1533
2004 2 1523
2004 3 1559
2005 1 1533
2005 2 1559
2005 3 1560
2006 1 1559
2006 2 1558
2006 3 1560
2007 1 1558
2007 2 1559
2007 3 1561
2008 1 1559
2008 2 1523
2008 3 1561
2009 1 1523
2009 2 1528
2009 3 1561
2010 1 1562
2010 2 1558
2010 3 1568
2011 1 1561
2011 2 1528
2011 3 1563
2012 1 1528
2012 2 1527
2012 3 1564
2013 1 1527
2013 2 679
2013 3 1564
2014 1 1563
2014 2 1528
2014 3 1564
2015 1 680
2015 2 726
2015 3 2280
2016 1 1563
2016 2 1564
2016 3 1565
2017 1 1564
2017 2 679
2017 3 1565
2018 1 1562
2018 2 1563
2018 3 1566
2019 1 1563
2019 2 1565
2019 3 1566
2020 1 1065
2020 2 927
2020 3 1567
2021 1 927
2021 2 926
2021 3 1567
2022 1 926
2022 2 1566
2022 3 1567
2023 1 1558
2023 2 1561
2023 3 1568
2024 1 1561
2024 2 1563
2024 3 1568
2025 1 1563
2025 2 1562
2025 3 1568
2026 1 1555
2026 2 1535
2026 3 1570
2027 1 1536
2027 2 1555
2027 3 1571
2028 1 1555
2028 2 1570
2028 3 1571
2029 1 1570
2029 2 1569
2029 3 1571
2030 1 1543
2030 2 1536
2030 3 1573
2031 1 1571
2031 2 1569
2031 3 1572
2032 1 1536
2032 2 1571
2032 3 1573
2033 1 1571
2033 2 1572
2033 3 1573
2034 1 1572
2034 2 1544
2034 3 1573
2035 1 1544
2035 2 1543
2035 3 1573
2036 1 1572
2036 2 1569
2036 3 1575
2037 1 1411
2037 2 1544
2037 3 2278
2038 1 1575
2038 2 1574
2038 3 1577
2039 1 1544
2039 2 1572
2039 3 1578
2040 1 1572
2040 2 1575
2040 3 1578
2041 1 1575
2041 2 1577
2041 3 1578
2042 1 1577
2042 2 1576
2042 3 1578
2043 1 1577
2043 2 1574
2043 3 1580
2044 1 1576
2044 2 1577
2044 3 1581
2045 1 1577
2045 2 1580
2045 3 1581
2046 1 1580
2046 2 1579
2046 3 1581
2047 1 1412
2047 2 1411
2047 3 1815
2048 1 1581
2048 2 1579
2048 3 1582
2049 1 1579
2049 2 1580
2049 3 1585
2050 1 906
2050 2 1805
2050 3 1814
2051 1 1580
2051 2 1574
2051 3 1584
2052 1 1580
2052 2 1584
2052 3 1585
2053 1 1584
2053 2 1583
2053 3 1585
2054 1 1404
2054 2 1582
2054 3 1587
2055 1 1579
2055 2 1585
2055 3 1586
2056 1 1585
2056 2 1583
2056 3 1586
2057 1 1582
2057 2 1579
2057 3 1587
2058 1 1579
2058 2 1586
2058 3 1587
2059 1 1586
2059 2 1404
2059 3 1587
2060 1 1404
2060 2 1586
2060 3 1589
2061 1 1409
2061 2 1410
2061 3 1590
2062 1 1404
2062 2 1589
2062 3 1590
2063 1 1590
2063 2 1589
2063 3 1812
2064 1 947
2064 2 1154
2064 3 1811
2065 1 1594
2065 2 1593
2065 3 1596
2066 1 1594
2066 2 1596
2066 3 1597
2067 1 948
2067 2 1154
2067 3 1603
2068 1 947
2068 2 1597
2068 3 1598
2069 1 1597
2069 2 1596
2069 3 1599
2070 1 1596
2070 2 1595
2070 3 1599
2071 1 1598
2071 2 1597
2071 3 1599
2072 1 909
2072 2 1059
2072 3 1602
2073 1 1598
2073 2 1599
2073 3 1600
2074 1 1599
2074 2 1595
2074 3 1600
2075 1 908
2075 2 1602
2075 3 2277
2076 1 1059
2076 2 1598
2076 3 1602
2077 1 1598
2077 2 1600
2077 3 1602
2078 1 908
2078 2 909
2078 3 1602
2079 1 1154
2079 2 947
2079 3 1603
2080 1 947
2080 2 1598
2080 3 1603
2081 1 1598
2081 2 1059
2081 3 1603
2082 1 1059
2082 2 948
2082 3 1603
2083 1 1596
2083 2 1593
2083 3 1810
2084 1 1595
2084 2 1596
2084 3 1606
2085 1 1601
2085 2 1595
2085 3 1607
2086 1 1595
2086 2 1606
2086 3 1607
2087 1 1605
2087 2 1745
2087 3 2276
2088 1 1601
2088 2 1607
2088 3 1608
2089 1 1608
2089 2 1607
2089 3 1609
2090 1 907
2090 2 1608
2090 3 1611
2091 1 1611
2091 2 1610
2091 3 1734
2092 1 907
2092 2 1611
2092 3 1614
2093 1 907
2093 2 1614
2093 3 1616
2094 1 1601
2094 2 1608
2094 3 1725
2095 1 907
2095 2 1616
2095 3 1617
2096 1 1616
2096 2 1615
2096 3 1617
2097 1 1615
2097 2 1616
2097 3 1618
2098 1 1616
2098 2 1614
2098 3 1618
2099 1 1614
2099 2 1613
2099 3 1618
2100 1 1613
2100 2 1612
2100 3 1618
2101 1 1618
2101 2 1612
2101 3 1620
2102 1 1615
2102 2 1618
2102 3 1620
2103 1 1621
2103 2 1615
2103 3 1622
2104 1 1615
2104 2 1620
2104 3 1622
2105 1 1620
2105 2 1612
2105 3 1624
2106 1 1619
2106 2 1622
2106 3 1625
2107 1 1622
2107 2 1620
2107 3 1625
2108 1 1620
2108 2 1624
2108 3 1625
2109 1 1624
2109 2 1623
2109 3 1625
2110 1 1625
2110 2 1623
2110 3 1627
2111 1 1626
2111 2 1627
2111 3 1628
2112 1 956
2112 2 1628
2112 3 1629
2113 1 1628
2113 2 1627
2113 3 1629
2114 1 1627
2114 2 1623
2114 3 1629
2115 1 1629
2115 2 1623
2115 3 1631
2116 1 1629
2116 2 1631
2116 3 1724
2117 1 1628
2117 2 956
2117 3 1634
2118 1 1626
2118 2 1628
2118 3 1635
2119 1 1628
2119 2 1634
2119 3 1635
2120 1 1634
2120 2 1633
2120 3 1635
2121 1 1635
2121 2 1633
2121 3 1637
2122 1 1626
2122 2 1635
2122 3 1719
2123 1 1637
2123 2 1636
2123 3 1639
2124 1 1635
2124 2 1637
2124 3 1639
2125 1 1638
2125 2 1639
2125 3 1640
2126 1 1639
2126 2 1636
2126 3 1640
2127 1 1637
2127 2 1633
2127 3 1642
2128 1 1636
2128 2 1637
2128 3 1642
2129 1 1641
2129 2 1642
2129 3 1643
2130 1 1642
2130 2 1633
2130 3 1643
2131 1 1641
2131 2 1643
2131 3 1644
2132 1 1643
2132 2 1259
2132 3 1644
2133 1 957
2133 2 1379
2133 3 1646
2134 1 1259
2134 2 1643
2134 3 1645
2135 1 1633
2135 2 1634
2135 3 1647
2136 1 1379
2136 2 1259
2136 3 1646
2137 1 1259
2137 2 1645
2137 3 1646
2138 1 1645
2138 2 1643
2138 3 1647
2139 1 1643
2139 2 1633
2139 3 1647
2140 1 957
2140 2 1646
2140 3 1649
2141 1 1645
2141 2 1647
2141 3 1648
2142 1 1647
2142 2 1634
2142 3 1648
2143 1 1634
2143 2 956
2143 3 1648
2144 1 1646
2144 2 1645
2144 3 1649
2145 1 1645
2145 2 1648
2145 3 1649
2146 1 1649
2146 2 1648
2146 3 1651
2147 1 956
2147 2 1632
2147 3 2275
2148 1 957
2148 2 1649
2148 3 1652
2149 1 1649
2149 2 1651
2149 3 1652
2150 1 1651
2150 2 1650
2150 3 1652
2151 1 920
2151 2 1056
2151 3 1657
2152 1 1652
2152 2 1650
2152 3 1654
2153 1 958
2153 2 1379
2153 3 2274
2154 1 1652
2154 2 1654
2154 3 1655
2155 1 1654
2155 2 1653
2155 3 1655
2156 1 1653
2156 2 1654
2156 3 1656
2157 1 1056
2157 2 1655
2157 3 1657
2158 1 1655
2158 2 1653
2158 3 1657
2159 1 1400
2159 2 920
2159 3 1708
2160 1 1657
2160 2 1653
2160 3 1658
2161 1 1658
2161 2 1653
2161 3 1662
2162 1 1653
2162 2 1656
2162 3 1662
2163 1 1660
2163 2 1661
2163 3 1664
2164 1 1662
2164 2 1656
2164 3 1663
2165 1 1661
2165 2 1658
2165 3 1664
2166 1 1658
2166 2 1662
2166 3 1664
2167 1 1662
2167 2 1663
2167 3 1664
2168 1 1659
2168 2 1660
2168 3 1664
2169 1 1659
2169 2 1664
2169 3 1707
2170 1 1650
2170 2 1651
2170 3 1709
2171 1 1663
2171 2 1656
2171 3 1667
2172 1 1663
2172 2 1667
2172 3 1668
2173 1 1668
2173 2 1667
2173 3 1706
2174 1 1656
2174 2 1654
2174 3 1671
2175 1 1654
2175 2 1650
2175 3 1671
2176 1 1670
2176 2 1667
2176 3 1671
2177 1 1667
2177 2 1656
2177 3 1671
2178 1 1666
2178 2 1667
2178 3 1673
2179 1 1667
2179 2 1670
2179 3 1673
2180 1 1534
2180 2 1665
2180 3 1688
2181 1 1669
2181 2 1675
2181 3 1676
2182 1 1675
2182 2 1674
2182 3 1676
2183 1 1674
2183 2 1675
2183 3 1677
2184 1 1675
2184 2 1666
2184 3 1677
2185 1 1666
2185 2 1673
2185 3 1677
2186 1 1673
2186 2 1672
2186 3 1677
2187 1 1674
2187 2 1677
2187 3 1678
2188 1 1678
2188 2 1677
2188 3 1679
2189 1 1677
2189 2 1672
2189 3 1679
2190 1 1674
2190 2 1678
2190 3 1680
2191 1 1676
2191 2 1674
2191 3 1682
2192 1 1680
2192 2 1584
2192 3 1681
2193 1 1584
2193 2 1574
2193 3 1681
2194 1 1674
2194 2 1680
2194 3 1682
2195 1 1680
2195 2 1681
2195 3 1682
2196 1 1631
2196 2 1623
2196 3 2300
2197 1 1678
2197 2 1679
2197 3 1684
2198 1 1679
2198 2 1630
2198 3 1684
2199 1 906
2199 2 1680
2199 3 1685
2200 1 1680
2200 2 1678
2200 3 1685
2201 1 1678
2201 2 1684
2201 3 1685
2202 1 1684
2202 2 1683
2202 3 1685
2203 1 1612
2203 2 1613
2203 3 1687
2204 1 1683
2204 2 1684
2204 3 1686
2205 1 1684
2205 2 1630
2205 3 1686
2206 1 1630
2206 2 1631
2206 3 1686
2207 1 1683
2207 2 1686
2207 3 1687
2208 1 1686
2208 2 1624
2208 3 1687
2209 1 1624
2209 2 1612
2209 3 1687
2210 1 1665
2210 2 1669
2210 3 1688
2211 1 1669
2211 2 1676
2211 3 1688
2212 1 1676
2212 2 1682
2212 3 1705
2213 1 1575
2213 2 1569
2213 3 1704
2214 1 1534
2214 2 1688
2214 3 1689
2215 1 1688
2215 2 1676
2215 3 1689
2216 1 1534
2216 2 1689
2216 3 1690
2217 1 1689
2217 2 1569
2217 3 1690
2218 1 1569
2218 2 1570
2218 3 1690
2219 1 1665
2219 2 1534
2219 3 1693
2220 1 1534
2220 2 1690
2220 3 1691
2221 1 1690
2221 2 1570
2221 3 1692
2222 1 1570
2222 2 1535
2222 3 1692
2223 1 1535
2223 2 1691
2223 3 1692
2224 1 1691
2224 2 1690
2224 3 1692
2225 1 1534
2225 2 1691
2225 3 1693
2226 1 1693
2226 2 1691
2226 3 1694
2227 1 1535
2227 2 1556
2227 3 1702
2228 1 1694
2228 2 1691
2228 3 1695
2229 1 1694
2229 2 1695
2229 3 1696
2230 1 1695
2230 2 1558
2230 3 1696
2231 1 1558
2231 2 1562
2231 3 1696
2232 1 946
2232 2 1401
2232 3 1699
2233 1 1562
2233 2 1566
2233 3 2273
2234 1 1694
2234 2 1696
2234 3 1698
2235 1 1696
2235 2 1697
2235 3 1698
2236 1 1660
2236 2 1659
2236 3 1701
2237 1 926
2237 2 927
2237 3 1700
2238 1 927
2238 2 946
2238 3 1700
2239 1 946
2239 2 1699
2239 3 1700
2240 1 1699
2240 2 1697
2240 3 1700
2241 1 1659
2241 2 1698
2241 3 1701
2242 1 1698
2242 2 1697
2242 3 1701
2243 1 1697
2243 2 1699
2243 3 1701
2244 1 1699
2244 2 1401
2244 3 1701
2245 1 1401
2245 2 1661
2245 3 1701
2246 1 1661
2246 2 1660
2246 3 1701
2247 1 1556
2247 2 1560
2247 3 1702
2248 1 1560
2248 2 1558
2248 3 1702
2249 1 1558
2249 2 1695
2249 3 1702
2250 1 1695
2250 2 1691
2250 3 1702
2251 1 1691
2251 2 1535
2251 3 1702
2252 1 1665
2252 2 1693
2252 3 1703
2253 1 1693
2253 2 1694
2253 3 1703
2254 1 1694
2254 2 1698
2254 3 1703
2255 1 1698
2255 2 1659
2255 3 1703
2256 1 1569
2256 2 1689
2256 3 1704
2257 1 1682
2257 2 1681
2257 3 1705
2258 1 1681
2258 2 1574
2258 3 1705
2259 1 1574
2259 2 1575
2259 3 1705
2260 1 1575
2260 2 1704
2260 3 1705
2261 1 1704
2261 2 1689
2261 3 1705
2262 1 1689
2262 2 1676
2262 3 1705
2263 1 1667
2263 2 1666
2263 3 1706
2264 1 1666
2264 2 1675
2264 3 1706
2265 1 1675
2265 2 1669
2265 3 1706
2266 1 1669
2266 2 1665
2266 3 1706
2267 1 1665
2267 2 1668
2267 3 1706
2268 1 1664
2268 2 1663
2268 3 1707
2269 1 1663
2269 2 1668
2269 3 1707
2270 1 1668
2270 2 1665
2270 3 1707
2271 1 1665
2271 2 1703
2271 3 1707
2272 1 1703
2272 2 1659
2272 3 1707
2273 1 920
2273 2 1657
2273 3 1708
2274 1 1657
2274 2 1658
2274 3 1708
2275 1 1658
2275 2 1661
2275 3 1708
2276 1 1661
2276 2 1401
2276 3 1708
2277 1 1401
2277 2 1400
2277 3 1708
2278 1 1670
2278 2 1671
2278 3 1709
2279 1 1671
2279 2 1650
2279 3 1709
2280 1 1672
2280 2 1673
2280 3 1710
2281 1 1673
2281 2 1670
2281 3 1710
2282 1 1670
2282 2 1709
2282 3 1710
2283 1 1709
2283 2 1632
2283 3 1710
2284 1 1631
2284 2 1630
2284 3 1711
2285 1 1630
2285 2 1679
2285 3 1711
2286 1 1679
2286 2 1672
2286 3 1711
2287 1 1672
2287 2 1710
2287 3 1711
2288 1 1710
2288 2 1632
2288 3 1711
2289 1 1234
2289 2 1718
2289 3 2272
2290 1 1641
2290 2 1644
2290 3 1712
2291 1 1644
2291 2 1248
2291 3 1712
2292 1 1248
2292 2 1254
2292 3 1712
2293 1 1636
2293 2 1642
2293 3 2271
2294 1 1641
2294 2 1712
2294 3 1713
2295 1 1253
2295 2 1192
2295 3 1714
2296 1 1192
2296 2 1238
2296 3 1714
2297 1 1713
2297 2 1712
2297 3 1715
2298 1 1254
2298 2 1253
2298 3 1714
2299 1 1712
2299 2 1254
2299 3 1715
2300 1 1254
2300 2 1714
2300 3 1715
2301 1 1713
2301 2 1715
2301 3 1716
2302 1 1715
2302 2 1714
2302 3 1716
2303 1 1714
2303 2 1238
2303 3 1716
2304 1 1238
2304 2 1234
2304 3 1716
2305 1 1248
2305 2 1644
2305 3 1717
2306 1 1644
2306 2 1259
2306 3 1717
2307 1 1259
2307 2 1260
2307 3 1717
2308 1 1635
2308 2 1639
2308 3 1719
2309 1 1639
2309 2 1638
2309 3 1719
2310 1 1619
2310 2 1625
2310 3 1721
2311 1 1626
2311 2 1719
2311 3 1720
2312 1 1625
2312 2 1627
2312 3 1721
2313 1 1627
2313 2 1626
2313 3 1721
2314 1 1626
2314 2 1720
2314 3 1721
2315 1 1621
2315 2 1622
2315 3 1722
2316 1 1619
2316 2 1721
2316 3 1723
2317 1 1721
2317 2 1720
2317 3 1723
2318 1 1722
2318 2 1622
2318 3 1723
2319 1 1622
2319 2 1619
2319 3 1723
2320 1 1631
2320 2 1711
2320 3 1724
2321 1 1711
2321 2 1632
2321 3 1724
2322 1 1632
2322 2 956
2322 3 1724
2323 1 956
2323 2 1629
2323 3 1724
2324 1 1608
2324 2 907
2324 3 1725
2325 1 907
2325 2 1617
2325 3 1725
2326 1 908
2326 2 1617
2326 3 1727
2327 1 1615
2327 2 1621
2327 3 1731
2328 1 1072
2328 2 910
2328 3 1733
2329 1 909
2329 2 908
2329 3 1728
2330 1 908
2330 2 1727
2330 3 1728
2331 1 1727
2331 2 1726
2331 3 1728
2332 1 1103
2332 2 734
2332 3 1732
2333 1 1726
2333 2 1727
2333 3 1729
2334 1 1727
2334 2 1617
2334 3 1729
2335 1 1617
2335 2 1615
2335 3 1729
2336 1 1726
2336 2 1729
2336 3 1730
2337 1 1621
2337 2 1730
2337 3 1731
2338 1 1730
2338 2 1729
2338 3 1731
2339 1 1729
2339 2 1615
2339 3 1731
2340 1 734
2340 2 1072
2340 3 1732
2341 1 1072
2341 2 1728
2341 3 1732
2342 1 1728
2342 2 1726
2342 3 1732
2343 1 910
2343 2 909
2343 3 1733
2344 1 909
2344 2 1728
2344 3 1733
2345 1 1728
2345 2 1072
2345 3 1733
2346 1 1613
2346 2 1614
2346 3 1734
2347 1 1614
2347 2 1611
2347 3 1734
2348 1 1610
2348 2 1611
2348 3 1735
2349 1 1611
2349 2 1608
2349 3 1736
2350 1 1608
2350 2 1609
2350 3 1736
2351 1 1609
2351 2 1735
2351 3 1736
2352 1 1735
2352 2 1611
2352 3 1736
2353 1 1610
2353 2 1735
2353 3 1803
2354 1 1589
2354 2 1586
2354 3 1738
2355 1 1588
2355 2 1589
2355 3 1740
2356 1 1738
2356 2 1737
2356 3 1739
2357 1 1589
2357 2 1738
2357 3 1740
2358 1 1738
2358 2 1739
2358 3 1740
2359 1 1741
2359 2 1604
2359 3 1743
2360 1 1588
2360 2 1740
2360 3 1799
2361 1 1741
2361 2 1743
2361 3 1744
2362 1 1743
2362 2 1742
2362 3 1744
2363 1 1742
2363 2 1743
2363 3 1745
2364 1 1743
2364 2 1604
2364 3 1745
2365 1 1742
2365 2 1745
2365 3 1746
2366 1 1593
2366 2 1746
2366 3 1747
2367 1 1746
2367 2 1745
2367 3 1747
2368 1 1745
2368 2 1605
2368 3 1747
2369 1 1742
2369 2 1746
2369 3 1748
2370 1 1746
2370 2 1592
2370 3 1748
2371 1 1744
2371 2 1742
2371 3 1749
2372 1 1742
2372 2 1748
2372 3 1749
2373 1 1409
2373 2 1590
2373 3 1756
2374 1 1750
2374 2 1754
2374 3 1755
2375 1 1754
2375 2 1751
2375 3 1755
2376 1 1590
2376 2 1591
2376 3 1756
2377 1 1591
2377 2 1755
2377 3 1756
2378 1 1755
2378 2 1751
2378 3 1756
2379 1 1409
2379 2 1756
2379 3 1758
2380 1 390
2380 2 391
2380 3 1765
2381 1 1756
2381 2 1751
2381 3 1758
2382 1 1407
2382 2 1408
2382 3 1759
2383 1 1410
2383 2 1409
2383 3 1772
2384 1 1758
2384 2 1757
2384 3 1759
2385 1 1757
2385 2 1758
2385 3 1760
2386 1 1751
2386 2 1754
2386 3 2270
2387 1 1024
2387 2 393
2387 3 1762
2388 1 1407
2388 2 1759
2388 3 1761
2389 1 1759
2389 2 1757
2389 3 1761
2390 1 393
2390 2 935
2390 3 1762
2391 1 935
2391 2 1761
2391 3 1762
2392 1 1024
2392 2 1762
2392 3 1763
2393 1 1761
2393 2 1757
2393 3 1764
2394 1 1763
2394 2 1762
2394 3 1764
2395 1 1762
2395 2 1761
2395 3 1764
2396 1 391
2396 2 1024
2396 3 1765
2397 1 1024
2397 2 1763
2397 3 1765
2398 1 1087
2398 2 389
2398 3 1766
2399 1 389
2399 2 390
2399 3 1766
2400 1 390
2400 2 1765
2400 3 1766
2401 1 1765
2401 2 1763
2401 3 1766
2402 1 1087
2402 2 1766
2402 3 1767
2403 1 1763
2403 2 1764
2403 3 1768
2404 1 1764
2404 2 1757
2404 3 1768
2405 1 1757
2405 2 1760
2405 3 1768
2406 1 1760
2406 2 1767
2406 3 1768
2407 1 1767
2407 2 1766
2407 3 1768
2408 1 1766
2408 2 1763
2408 3 1768
2409 1 1087
2409 2 1767
2409 3 1770
2410 1 1753
2410 2 1752
2410 3 1771
2411 1 1752
2411 2 1769
2411 3 1771
2412 1 1769
2412 2 1770
2412 3 1771
2413 1 1770
2413 2 1767
2413 3 1771
2414 1 1767
2414 2 1760
2414 3 1771
2415 1 1409
2415 2 1758
2415 3 1772
2416 1 1758
2416 2 1759
2416 3 1772
2417 1 1759
2417 2 1408
2417 3 1772
2418 1 1408
2418 2 1410
2418 3 1772
2419 1 1746
2419 2 1593
2419 3 1783
2420 1 1593
2420 2 1594
2420 3 1776
2421 1 1594
2421 2 1775
2421 3 1776
2422 1 1775
2422 2 1774
2422 3 1776
2423 1 1774
2423 2 1773
2423 3 1776
2424 1 1126
2424 2 1125
2424 3 1777
2425 1 1774
2425 2 1775
2425 3 1778
2426 1 1775
2426 2 1331
2426 3 1778
2427 1 1126
2427 2 1777
2427 3 1782
2428 1 1777
2428 2 1778
2428 3 1779
2429 1 1331
2429 2 1152
2429 3 1780
2430 1 1152
2430 2 288
2430 3 1781
2431 1 1779
2431 2 1778
2431 3 1780
2432 1 1778
2432 2 1331
2432 3 1780
2433 1 288
2433 2 1143
2433 3 1781
2434 1 1779
2434 2 1780
2434 3 1781
2435 1 1780
2435 2 1152
2435 3 1781
2436 1 1777
2436 2 1779
2436 3 1782
2437 1 1779
2437 2 944
2437 3 1782
2438 1 944
2438 2 1126
2438 3 1782
2439 1 1593
2439 2 1776
2439 3 1783
2440 1 1776
2440 2 1773
2440 3 1783
2441 1 1592
2441 2 1746
2441 3 1784
2442 1 1746
2442 2 1783
2442 3 1784
2443 1 1783
2443 2 1773
2443 3 1784
2444 1 1784
2444 2 1773
2444 3 1786
2445 1 1592
2445 2 1784
2445 3 1788
2446 1 1786
2446 2 1785
2446 3 1789
2447 1 1784
2447 2 1786
2447 3 1788
2448 1 1787
2448 2 1788
2448 3 1789
2449 1 1788
2449 2 1786
2449 3 1789
2450 1 1787
2450 2 1789
2450 3 1790
2451 1 1789
2451 2 1785
2451 3 1790
2452 1 1785
2452 2 1786
2452 3 1791
2453 1 1774
2453 2 1778
2453 3 1793
2454 1 1125
2454 2 1791
2454 3 1792
2455 1 1791
2455 2 1786
2455 3 1792
2456 1 1786
2456 2 1773
2456 3 1792
2457 1 1778
2457 2 1777
2457 3 1793
2458 1 1777
2458 2 1125
2458 3 1793
2459 1 1125
2459 2 1792
2459 3 1793
2460 1 1792
2460 2 1773
2460 3 1793
2461 1 1773
2461 2 1774
2461 3 1793
2462 1 1785
2462 2 1791
2462 3 1794
2463 1 1169
2463 2 1167
2463 3 1795
2464 1 1794
2464 2 1791
2464 3 1796
2465 1 1791
2465 2 1125
2465 3 1796
2466 1 301
2466 2 1169
2466 3 1797
2467 1 1795
2467 2 1794
2467 3 1796
2468 1 1169
2468 2 1795
2468 3 1797
2469 1 1795
2469 2 1796
2469 3 1797
2470 1 1125
2470 2 1126
2470 3 1798
2471 1 1126
2471 2 300
2471 3 1798
2472 1 300
2472 2 301
2472 3 1798
2473 1 301
2473 2 1797
2473 3 1798
2474 1 1797
2474 2 1796
2474 3 1798
2475 1 1796
2475 2 1125
2475 3 1798
2476 1 1740
2476 2 1741
2476 3 1799
2477 1 1741
2477 2 1744
2477 3 1799
2478 1 1750
2478 2 1755
2478 3 2269
2479 1 1604
2479 2 1741
2479 3 1800
2480 1 1741
2480 2 1740
2480 3 1800
2481 1 1740
2481 2 1739
2481 3 1800
2482 1 1739
2482 2 1735
2482 3 1800
2483 1 1604
2483 2 1800
2483 3 1801
2484 1 1800
2484 2 1735
2484 3 1801
2485 1 1735
2485 2 1609
2485 3 1801
2486 1 1737
2486 2 1738
2486 3 1802
2487 1 1738
2487 2 1586
2487 3 1802
2488 1 1586
2488 2 1583
2488 3 1802
2489 1 1735
2489 2 1739
2489 3 1803
2490 1 1739
2490 2 1737
2490 3 1803
2491 1 1610
2491 2 1803
2491 3 1804
2492 1 1803
2492 2 1737
2492 3 1804
2493 1 1804
2493 2 1737
2493 3 1805
2494 1 1737
2494 2 1802
2494 3 1805
2495 1 1802
2495 2 1583
2495 3 1805
2496 1 1687
2496 2 1613
2496 3 1808
2497 1 1734
2497 2 1610
2497 3 1806
2498 1 1610
2498 2 1804
2498 3 1806
2499 1 906
2499 2 1685
2499 3 1807
2500 1 1685
2500 2 1683
2500 3 1807
2501 1 1683
2501 2 1806
2501 3 1807
2502 1 1806
2502 2 1804
2502 3 1807
2503 1 1804
2503 2 1805
2503 3 1807
2504 1 1805
2504 2 906
2504 3 1807
2505 1 1613
2505 2 1734
2505 3 1808
2506 1 1734
2506 2 1806
2506 3 1808
2507 1 1806
2507 2 1683
2507 3 1808
2508 1 1683
2508 2 1687
2508 3 1808
2509 1 1604
2509 2 1801
2509 3 1809
2510 1 1801
2510 2 1609
2510 3 1809
2511 1 1609
2511 2 1607
2511 3 1809
2512 1 1607
2512 2 1606
2512 3 1809
2513 1 1606
2513 2 1605
2513 3 1809
2514 1 1593
2514 2 1747
2514 3 1810
2515 1 1747
2515 2 1605
2515 3 1810
2516 1 1605
2516 2 1606
2516 3 1810
2517 1 1606
2517 2 1596
2517 3 1810
2518 1 1154
2518 2 1331
2518 3 1811
2519 1 1331
2519 2 1775
2519 3 1811
2520 1 1775
2520 2 1594
2520 3 1811
2521 1 1594
2521 2 1597
2521 3 1811
2522 1 1597
2522 2 947
2522 3 1811
2523 1 1589
2523 2 1588
2523 3 1812
2524 1 1588
2524 2 1591
2524 3 1812
2525 1 1591
2525 2 1590
2525 3 1812
2526 1 1405
2526 2 1815
2526 3 2268
2527 1 1404
2527 2 1590
2527 3 1813
2528 1 1590
2528 2 1410
2528 3 1813
2529 1 1805
2529 2 1583
2529 3 1814
2530 1 1583
2530 2 1584
2530 3 1814
2531 1 1584
2531 2 1680
2531 3 1814
2532 1 1680
2532 2 906
2532 3 1814
2533 1 1576
2533 2 1581
2533 3 1816
2534 1 1405
2534 2 1412
2534 3 1815
2535 1 1581
2535 2 1582
2535 3 1816
2536 1 1582
2536 2 1815
2536 3 1816
2537 1 1815
2537 2 1411
2537 3 1816
2538 1 1533
2538 2 1560
2538 3 1817
2539 1 1560
2539 2 1556
2539 3 1817
2540 1 1556
2540 2 1557
2540 3 1817
2541 1 1557
2541 2 1532
2541 3 1817
2542 1 1157
2542 2 1516
2542 3 1818
2543 1 1516
2543 2 1518
2543 3 1818
2544 1 1518
2544 2 1517
2544 3 1818
2545 1 1513
2545 2 1502
2545 3 1819
2546 1 1502
2546 2 1818
2546 3 1819
2547 1 1818
2547 2 1517
2547 3 1819
2548 1 1517
2548 2 1553
2548 3 1819
2549 1 1553
2549 2 1512
2549 3 1819
2550 1 1526
2550 2 1525
2550 3 1821
2551 1 1515
2551 2 1518
2551 3 1824
2552 1 1525
2552 2 1515
2552 3 1821
2553 1 1515
2553 2 1820
2553 3 1821
2554 1 1158
2554 2 1526
2554 3 1821
2555 1 1158
2555 2 1821
2555 3 1822
2556 1 1821
2556 2 1820
2556 3 1822
2557 1 1516
2557 2 1157
2557 3 1823
2558 1 1157
2558 2 1501
2558 3 1823
2559 1 1501
2559 2 1822
2559 3 1823
2560 1 1822
2560 2 1820
2560 3 1823
2561 1 1518
2561 2 1516
2561 3 1824
2562 1 1516
2562 2 1823
2562 3 1824
2563 1 1823
2563 2 1820
2563 3 1824
2564 1 1820
2564 2 1515
2564 3 1824
2565 1 1492
2565 2 1494
2565 3 1825
2566 1 1382
2566 2 1385
2566 3 1825
2567 1 1159
2567 2 1158
2567 3 1836
2568 1 1482
2568 2 1483
2568 3 1826
2569 1 1483
2569 2 1481
2569 3 1827
2570 1 1160
2570 2 1826
2570 3 1827
2571 1 1826
2571 2 1483
2571 3 1827
2572 1 713
2572 2 714
2572 3 1834
2573 1 1160
2573 2 1827
2573 3 1828
2574 1 1827
2574 2 1481
2574 3 1828
2575 1 1481
2575 2 1476
2575 3 1828
2576 1 1160
2576 2 1828
2576 3 1829
2577 1 1828
2577 2 1476
2577 3 1833
2578 1 712
2578 2 1462
2578 3 1832
2579 1 1423
2579 2 1426
2579 3 1831
2580 1 1426
2580 2 713
2580 3 1831
2581 1 713
2581 2 1830
2581 3 1831
2582 1 1422
2582 2 1423
2582 3 1831
2583 1 1462
2583 2 1463
2583 3 1832
2584 1 1463
2584 2 1422
2584 3 1832
2585 1 1422
2585 2 1831
2585 3 1832
2586 1 1831
2586 2 1830
2586 3 1832
2587 1 1830
2587 2 712
2587 3 1832
2588 1 1476
2588 2 712
2588 3 1833
2589 1 712
2589 2 1830
2589 3 1833
2590 1 1830
2590 2 1829
2590 3 1833
2591 1 1829
2591 2 1828
2591 3 1833
2592 1 714
2592 2 1003
2592 3 1834
2593 1 1003
2593 2 1133
2593 3 1835
2594 1 1160
2594 2 1829
2594 3 1834
2595 1 1829
2595 2 713
2595 3 1834
2596 1 1133
2596 2 1161
2596 3 1835
2597 1 1161
2597 2 1160
2597 3 1835
2598 1 1160
2598 2 1834
2598 3 1835
2599 1 1834
2599 2 1003
2599 3 1835
2600 1 1501
2600 2 1503
2600 3 1839
2601 1 1160
2601 2 1161
2601 3 1838
2602 1 1161
2602 2 900
2602 3 1837
2603 1 900
2603 2 1159
2603 3 1837
2604 1 1159
2604 2 1836
2604 3 1837
2605 1 1161
2605 2 1837
2605 3 1838
2606 1 1837
2606 2 1836
2606 3 1838
2607 1 1836
2607 2 1826
2607 3 1838
2608 1 1826
2608 2 1160
2608 3 1838
2609 1 1503
2609 2 1482
2609 3 1839
2610 1 1482
2610 2 1826
2610 3 1839
2611 1 1826
2611 2 1836
2611 3 1839
2612 1 1836
2612 2 1158
2612 3 1839
2613 1 1158
2613 2 1822
2613 3 1839
2614 1 1822
2614 2 1501
2614 3 1839
2615 1 1447
2615 2 1451
2615 3 1840
2616 1 1451
2616 2 1446
2616 3 1840
2617 1 1449
2617 2 1447
2617 3 1841
2618 1 1447
2618 2 1840
2618 3 1841
2619 1 1840
2619 2 1446
2619 3 1841
2620 1 1449
2620 2 1841
2620 3 1843
2621 1 1292
2621 2 1303
2621 3 1872
2622 1 1843
2622 2 1842
2622 3 1845
2623 1 1221
2623 2 1117
2623 3 2157
2624 1 1449
2624 2 1843
2624 3 1845
2625 1 1845
2625 2 1842
2625 3 1846
2626 1 1118
2626 2 1221
2626 3 1850
2627 1 1477
2627 2 1491
2627 3 2267
2628 1 1843
2628 2 1841
2628 3 1848
2629 1 1446
2629 2 1458
2629 3 2266
2630 1 1847
2630 2 1848
2630 3 1849
2631 1 1848
2631 2 1841
2631 3 1849
2632 1 1841
2632 2 1446
2632 3 1849
2633 1 1118
2633 2 1850
2633 3 1851
2634 1 1850
2634 2 1846
2634 3 1851
2635 1 1846
2635 2 1842
2635 3 1851
2636 1 1842
2636 2 1843
2636 3 1871
2637 1 1851
2637 2 1842
2637 3 1853
2638 1 1118
2638 2 1851
2638 3 1854
2639 1 1851
2639 2 1853
2639 3 1854
2640 1 1853
2640 2 1852
2640 3 1854
2641 1 1097
2641 2 1181
2641 3 1857
2642 1 1119
2642 2 1118
2642 3 1856
2643 1 1854
2643 2 1852
2643 3 1855
2644 1 1118
2644 2 1854
2644 3 1856
2645 1 1854
2645 2 1855
2645 3 1856
2646 1 1181
2646 2 2147
2646 3 2299
2647 1 1181
2647 2 1855
2647 3 1857
2648 1 1385
2648 2 1097
2648 3 1858
2649 1 1097
2649 2 1857
2649 3 1858
2650 1 1855
2650 2 1852
2650 3 1870
2651 1 1385
2651 2 1858
2651 3 1860
2652 1 1492
2652 2 1825
2652 3 1861
2653 1 1825
2653 2 1385
2653 3 1861
2654 1 1385
2654 2 1860
2654 3 1861
2655 1 1860
2655 2 1859
2655 3 1861
2656 1 1492
2656 2 1861
2656 3 1862
2657 1 1861
2657 2 1859
2657 3 1862
2658 1 1456
2658 2 1478
2658 3 1869
2659 1 1862
2659 2 1859
2659 3 1863
2660 1 1859
2660 2 1864
2660 3 1865
2661 1 1859
2661 2 1860
2661 3 1864
2662 1 1860
2662 2 1858
2662 3 1864
2663 1 1863
2663 2 1859
2663 3 1865
2664 1 1459
2664 2 1863
2664 3 1866
2665 1 1863
2665 2 1865
2665 3 1866
2666 1 1865
2666 2 1847
2666 3 1866
2667 1 1847
2667 2 1849
2667 3 1866
2668 1 1847
2668 2 1865
2668 3 1867
2669 1 1865
2669 2 1864
2669 3 1867
2670 1 1864
2670 2 1852
2670 3 1867
2671 1 1852
2671 2 1853
2671 3 1867
2672 1 1862
2672 2 1863
2672 3 1868
2673 1 1863
2673 2 1478
2673 3 1868
2674 1 1478
2674 2 1477
2674 3 1868
2675 1 1478
2675 2 1863
2675 3 1869
2676 1 1863
2676 2 1459
2676 3 1869
2677 1 1852
2677 2 1864
2677 3 1870
2678 1 1864
2678 2 1858
2678 3 1870
2679 1 1858
2679 2 1857
2679 3 1870
2680 1 1857
2680 2 1855
2680 3 1870
2681 1 1843
2681 2 1848
2681 3 1871
2682 1 1848
2682 2 1847
2682 3 1871
2683 1 1847
2683 2 1867
2683 3 1871
2684 1 1867
2684 2 1853
2684 3 1871
2685 1 1853
2685 2 1842
2685 3 1871
2686 1 1303
2686 2 1304
2686 3 1872
2687 1 1304
2687 2 1449
2687 3 1872
2688 1 1449
2688 2 1845
2688 3 1872
2689 1 1845
2689 2 1844
2689 3 1872
2690 1 1844
2690 2 1292
2690 3 1872
2691 1 1256
2691 2 1255
2691 3 1874
2692 1 1439
2692 2 1436
2692 3 1873
2693 1 1436
2693 2 1139
2693 3 1873
2694 1 1255
2694 2 1439
2694 3 1874
2695 1 1439
2695 2 1873
2695 3 1874
2696 1 1123
2696 2 1252
2696 3 1875
2697 1 1252
2697 2 1256
2697 3 1875
2698 1 1256
2698 2 1874
2698 3 1875
2699 1 1874
2699 2 1873
2699 3 1875
2700 1 1873
2700 2 840
2700 3 1875
2701 1 1435
2701 2 1432
2701 3 1876
2702 1 1432
2702 2 1439
2702 3 1876
2703 1 1439
2703 2 1255
2703 3 1876
2704 1 1139
2704 2 1437
2704 3 1877
2705 1 1437
2705 2 238
2705 3 1877
2706 1 238
2706 2 239
2706 3 1877
2707 1 205
2707 2 732
2707 3 1879
2708 1 732
2708 2 993
2708 3 1879
2709 1 993
2709 2 1878
2709 3 1879
2710 1 730
2710 2 731
2710 3 1880
2711 1 731
2711 2 204
2711 3 1880
2712 1 204
2712 2 205
2712 3 1880
2713 1 205
2713 2 1879
2713 3 1880
2714 1 1879
2714 2 1878
2714 3 1880
2715 1 730
2715 2 1880
2715 3 1881
2716 1 1880
2716 2 1878
2716 3 1881
2717 1 1878
2717 2 993
2717 3 1884
2718 1 1255
2718 2 1256
2718 3 1883
2719 1 1266
2719 2 1881
2719 3 1882
2720 1 1881
2720 2 1878
2720 3 1882
2721 1 1262
2721 2 1266
2721 3 1883
2722 1 1266
2722 2 1882
2722 3 1883
2723 1 1882
2723 2 1255
2723 3 1883
2724 1 993
2724 2 1435
2724 3 1884
2725 1 1435
2725 2 1876
2725 3 1884
2726 1 1876
2726 2 1255
2726 3 1884
2727 1 1255
2727 2 1882
2727 3 1884
2728 1 1882
2728 2 1878
2728 3 1884
2729 1 31
2729 2 32
2729 3 1885
2730 1 32
2730 2 1429
2730 3 1885
2731 1 1429
2731 2 878
2731 3 1885
2732 1 1076
2732 2 1885
2732 3 1886
2733 1 1885
2733 2 878
2733 3 1886
2734 1 878
2734 2 879
2734 3 1886
2735 1 879
2735 2 1078
2735 3 1886
2736 1 1076
2736 2 1886
2736 3 1887
2737 1 1886
2737 2 1078
2737 3 1887
2738 1 1078
2738 2 882
2738 3 1887
2739 1 882
2739 2 881
2739 3 1887
2740 1 65
2740 2 1020
2740 3 1888
2741 1 1020
2741 2 1427
2741 3 1888
2742 1 1427
2742 2 707
2742 3 1888
2743 1 707
2743 2 708
2743 3 1888
2744 1 708
2744 2 64
2744 3 1888
2745 1 1040
2745 2 1038
2745 3 1889
2746 1 1038
2746 2 1421
2746 3 1889
2747 1 1421
2747 2 1418
2747 3 1889
2748 1 1418
2748 2 169
2748 3 1889
2749 1 1016
2749 2 167
2749 3 1890
2750 1 167
2750 2 1420
2750 3 1890
2751 1 1420
2751 2 1419
2751 3 1890
2752 1 1419
2752 2 966
2752 3 1890
2753 1 1412
2753 2 1416
2753 3 1891
2754 1 1416
2754 2 1413
2754 3 1891
2755 1 1413
2755 2 1415
2755 3 1892
2756 1 1415
2756 2 1542
2756 3 1892
2757 1 1542
2757 2 1543
2757 3 1893
2758 1 1891
2758 2 1413
2758 3 1892
2759 1 1543
2759 2 1544
2759 3 1893
2760 1 1544
2760 2 1411
2760 3 1893
2761 1 1411
2761 2 1891
2761 3 1893
2762 1 1891
2762 2 1892
2762 3 1893
2763 1 1892
2763 2 1542
2763 3 1893
2764 1 190
2764 2 921
2764 3 1894
2765 1 921
2765 2 920
2765 3 1894
2766 1 920
2766 2 1400
2766 3 1894
2767 1 1400
2767 2 1009
2767 3 1894
2768 1 1009
2768 2 188
2768 3 1894
2769 1 1100
2769 2 1
2769 3 1900
2770 1 1399
2770 2 1063
2770 3 1898
2771 1 1347
2771 2 1346
2771 3 1896
2772 1 1352
2772 2 1017
2772 3 1897
2773 1 1063
2773 2 1347
2773 3 1896
2774 1 1017
2774 2 1895
2774 3 1897
2775 1 1895
2775 2 1896
2775 3 1897
2776 1 1896
2776 2 1346
2776 3 1897
2777 1 1346
2777 2 1352
2777 3 1897
2778 1 1063
2778 2 1896
2778 3 1898
2779 1 1896
2779 2 1895
2779 3 1898
2780 1 1399
2780 2 1898
2780 3 1899
2781 1 1898
2781 2 1895
2781 3 1899
2782 1 1
2782 2 2
2782 3 1900
2783 1 2
2783 2 1399
2783 3 1900
2784 1 1399
2784 2 1899
2784 3 1900
2785 1 1017
2785 2 1018
2785 3 1901
2786 1 1018
2786 2 1029
2786 3 1901
2787 1 1029
2787 2 1100
2787 3 1901
2788 1 1100
2788 2 1900
2788 3 1901
2789 1 1900
2789 2 1899
2789 3 1901
2790 1 1899
2790 2 1895
2790 3 1901
2791 1 1895
2791 2 1017
2791 3 1901
2792 1 1397
2792 2 1070
2792 3 1902
2793 1 1070
2793 2 914
2793 3 1902
2794 1 1084
2794 2 1104
2794 3 1903
2795 1 1394
2795 2 1083
2795 3 1903
2796 1 1394
2796 2 1903
2796 3 1904
2797 1 1903
2797 2 1104
2797 3 1904
2798 1 1510
2798 2 1509
2798 3 1905
2799 1 1509
2799 2 1508
2799 3 1905
2800 1 1508
2800 2 1904
2800 3 1905
2801 1 1510
2801 2 1905
2801 3 1906
2802 1 1905
2802 2 1904
2802 3 1906
2803 1 1904
2803 2 1104
2803 3 1906
2804 1 1510
2804 2 1906
2804 3 1907
2805 1 415
2805 2 418
2805 3 1908
2806 1 418
2806 2 982
2806 3 1908
2807 1 982
2807 2 1906
2807 3 1908
2808 1 1906
2808 2 1104
2808 3 1908
2809 1 1068
2809 2 1387
2809 3 1909
2810 1 1184
2810 2 359
2810 3 2265
2811 1 1071
2811 2 1067
2811 3 1910
2812 1 1067
2812 2 1909
2812 3 1910
2813 1 1909
2813 2 1387
2813 3 1910
2814 1 1068
2814 2 1909
2814 3 1911
2815 1 1909
2815 2 1067
2815 3 1911
2816 1 1067
2816 2 1397
2816 3 1911
2817 1 1911
2817 2 1397
2817 3 1913
2818 1 1033
2818 2 1189
2818 3 2259
2819 1 1284
2819 2 1069
2819 3 2258
2820 1 1911
2820 2 1913
2820 3 1915
2821 1 1068
2821 2 1911
2821 3 1915
2822 1 1913
2822 2 1397
2822 3 1917
2823 1 1397
2823 2 1902
2823 3 1917
2824 1 1902
2824 2 913
2824 3 1917
2825 1 913
2825 2 1916
2825 3 1917
2826 1 1089
2826 2 1184
2826 3 1918
2827 1 1184
2827 2 1910
2827 3 1918
2828 1 1910
2828 2 1387
2828 3 1918
2829 1 1387
2829 2 1389
2829 3 1918
2830 1 1389
2830 2 1095
2830 3 1918
2831 1 1919
2831 2 1384
2831 3 429
2832 1 1115
2832 2 1378
2832 3 1923
2833 1 1378
2833 2 718
2833 3 1922
2834 1 1378
2834 2 1922
2834 3 1923
2835 1 1922
2835 2 1921
2835 3 1923
2836 1 1921
2836 2 1920
2836 3 1923
2837 1 1377
2837 2 1115
2837 3 1923
2838 1 1377
2838 2 1923
2838 3 1924
2839 1 1923
2839 2 1920
2839 3 1924
2840 1 1110
2840 2 1042
2840 3 1925
2841 1 1042
2841 2 1041
2841 3 1925
2842 1 1041
2842 2 1924
2842 3 1925
2843 1 1924
2843 2 1920
2843 3 1925
2844 1 91
2844 2 92
2844 3 1927
2845 1 1110
2845 2 1925
2845 3 1926
2846 1 1925
2846 2 1920
2846 3 1926
2847 1 92
2847 2 1110
2847 3 1927
2848 1 1110
2848 2 1926
2848 3 1927
2849 1 1926
2849 2 1155
2849 3 1927
2850 1 1155
2850 2 91
2850 3 1927
2851 1 1155
2851 2 1926
2851 3 1928
2852 1 1926
2852 2 1920
2852 3 1928
2853 1 1920
2853 2 1921
2853 3 1928
2854 1 1140
2854 2 1141
2854 3 1930
2855 1 1155
2855 2 1928
2855 3 1929
2856 1 1141
2856 2 1156
2856 3 1930
2857 1 1156
2857 2 1155
2857 3 1930
2858 1 1155
2858 2 1929
2858 3 1930
2859 1 1929
2859 2 1140
2859 3 1930
2860 1 1378
2860 2 719
2860 3 1931
2861 1 1932
2861 2 1931
2861 3 1933
2862 1 1931
2862 2 719
2862 3 1933
2863 1 719
2863 2 1000
2863 3 1933
2864 1 1000
2864 2 1114
2864 3 1933
2865 1 888
2865 2 1932
2865 3 1934
2866 1 1932
2866 2 1933
2866 3 1934
2867 1 1933
2867 2 1114
2867 3 1934
2868 1 1114
2868 2 889
2868 3 1934
2869 1 998
2869 2 997
2869 3 1939
2870 1 1377
2870 2 1924
2870 3 1936
2871 1 1924
2871 2 1041
2871 3 1936
2872 1 1042
2872 2 1111
2872 3 1938
2873 1 1935
2873 2 1936
2873 3 1937
2874 1 1936
2874 2 1041
2874 3 1937
2875 1 1111
2875 2 1179
2875 3 1938
2876 1 1179
2876 2 1937
2876 3 1938
2877 1 1937
2877 2 1041
2877 3 1938
2878 1 1041
2878 2 1042
2878 3 1938
2879 1 997
2879 2 1377
2879 3 1939
2880 1 1377
2880 2 1936
2880 3 1939
2881 1 1936
2881 2 1935
2881 3 1939
2882 1 1935
2882 2 1940
2882 3 1939
2883 1 1939
2883 2 1940
2883 3 998
2884 1 1940
2884 2 1935
2884 3 126
2885 1 1376
2885 2 1124
2885 3 1941
2886 1 1124
2886 2 962
2886 3 1941
2887 1 964
2887 2 965
2887 3 1942
2888 1 965
2888 2 1376
2888 3 1942
2889 1 1376
2889 2 1941
2889 3 1942
2890 1 961
2890 2 1245
2890 3 1943
2891 1 964
2891 2 1942
2891 3 1943
2892 1 1942
2892 2 1941
2892 3 1943
2893 1 1941
2893 2 961
2893 3 1943
2894 1 1364
2894 2 1370
2894 3 1944
2895 1 1370
2895 2 1372
2895 3 1944
2896 1 1368
2896 2 1944
2896 3 1945
2897 1 1944
2897 2 1372
2897 3 1945
2898 1 1372
2898 2 940
2898 3 1946
2899 1 940
2899 2 1164
2899 3 1946
2900 1 1164
2900 2 1107
2900 3 1946
2901 1 1945
2901 2 1372
2901 3 1946
2902 1 1368
2902 2 1945
2902 3 1947
2903 1 1367
2903 2 1947
2903 3 1948
2904 1 1947
2904 2 1945
2904 3 1948
2905 1 1945
2905 2 1946
2905 3 1949
2906 1 1946
2906 2 1107
2906 3 1949
2907 1 1948
2907 2 1945
2907 3 1949
2908 1 1948
2908 2 1949
2908 3 1950
2909 1 1949
2909 2 1107
2909 3 1950
2910 1 1107
2910 2 1164
2910 3 1980
2911 1 1948
2911 2 1950
2911 3 1951
2912 1 1951
2912 2 1043
2912 3 1953
2913 1 1367
2913 2 1948
2913 3 1954
2914 1 1948
2914 2 1951
2914 3 1954
2915 1 1951
2915 2 1953
2915 3 1954
2916 1 1953
2916 2 1952
2916 3 1954
2917 1 1953
2917 2 1043
2917 3 1956
2918 1 1952
2918 2 1953
2918 3 1957
2919 1 1953
2919 2 1956
2919 3 1957
2920 1 1956
2920 2 1955
2920 3 1957
2921 1 718
2921 2 1932
2921 3 1958
2922 1 1957
2922 2 1955
2922 3 1958
2923 1 1928
2923 2 1921
2923 3 1960
2924 1 1921
2924 2 1922
2924 3 1959
2925 1 1922
2925 2 718
2925 3 1959
2926 1 718
2926 2 1958
2926 3 1959
2927 1 1958
2927 2 1955
2927 3 1959
2928 1 1921
2928 2 1959
2928 3 1960
2929 1 1929
2929 2 1928
2929 3 1960
2930 1 1955
2930 2 1956
2930 3 1961
2931 1 1956
2931 2 1043
2931 3 1962
2932 1 1961
2932 2 1956
2932 3 1962
2933 1 1109
2933 2 2164
2933 3 2255
2934 1 1043
2934 2 1951
2934 3 1963
2935 1 1951
2935 2 1950
2935 3 1963
2936 1 1950
2936 2 1044
2936 3 1963
2937 1 1929
2937 2 1960
2937 3 1965
2938 1 1959
2938 2 1955
2938 3 1964
2939 1 1955
2939 2 1961
2939 3 1964
2940 1 1961
2940 2 703
2940 3 1964
2941 1 1960
2941 2 1959
2941 3 1965
2942 1 1959
2942 2 1964
2942 3 1965
2943 1 1954
2943 2 1952
2943 3 1967
2944 1 1367
2944 2 1954
2944 3 1968
2945 1 1954
2945 2 1967
2945 3 1968
2946 1 1967
2946 2 1966
2946 3 1968
2947 1 1957
2947 2 1958
2947 3 1970
2948 1 1932
2948 2 888
2948 3 1969
2949 1 1966
2949 2 1967
2949 3 1969
2950 1 1967
2950 2 1952
2950 3 1969
2951 1 1958
2951 2 1932
2951 3 1970
2952 1 1932
2952 2 1969
2952 3 1970
2953 1 1969
2953 2 1952
2953 3 1970
2954 1 1952
2954 2 1957
2954 3 1970
2955 1 1968
2955 2 1966
2955 3 1971
2956 1 1339
2956 2 1135
2956 3 1975
2957 1 976
2957 2 975
2957 3 1972
2958 1 975
2958 2 1363
2958 3 1974
2959 1 1971
2959 2 1966
2959 3 1973
2960 1 1363
2960 2 1971
2960 3 1974
2961 1 1971
2961 2 1973
2961 3 1974
2962 1 1973
2962 2 1972
2962 3 1974
2963 1 1972
2963 2 975
2963 3 1974
2964 1 1135
2964 2 1120
2964 3 1975
2965 1 1120
2965 2 976
2965 3 1975
2966 1 976
2966 2 1972
2966 3 1975
2967 1 1972
2967 2 1973
2967 3 1975
2968 1 1973
2968 2 1339
2968 3 1975
2969 1 1339
2969 2 1973
2969 3 1976
2970 1 1973
2970 2 1966
2970 3 1976
2971 1 1966
2971 2 1969
2971 3 1976
2972 1 1969
2972 2 888
2972 3 1976
2973 1 1368
2973 2 1947
2973 3 1978
2974 1 1968
2974 2 1971
2974 3 1977
2975 1 1971
2975 2 1363
2975 3 1977
2976 1 1947
2976 2 1367
2976 3 1978
2977 1 1367
2977 2 1968
2977 3 1978
2978 1 1968
2978 2 1977
2978 3 1978
2979 1 1977
2979 2 1363
2979 3 1979
2980 1 1366
2980 2 1368
2980 3 1978
2981 1 1363
2981 2 1360
2981 3 1979
2982 1 1360
2982 2 1366
2982 3 1979
2983 1 1366
2983 2 1978
2983 3 1979
2984 1 1978
2984 2 1977
2984 3 1979
2985 1 1164
2985 2 990
2985 3 1980
2986 1 990
2986 2 1046
2986 3 1980
2987 1 1046
2987 2 1044
2987 3 1980
2988 1 1044
2988 2 1950
2988 3 1980
2989 1 1950
2989 2 1107
2989 3 1980
2990 1 11
2990 2 12
2990 3 1981
2991 1 1371
2991 2 1340
2991 3 1981
2992 1 1340
2992 2 1341
2992 3 1981
2993 1 1018
2993 2 1017
2993 3 1984
2994 1 1017
2994 2 1352
2994 3 1982
2995 1 1274
2995 2 1283
2995 3 1983
2996 1 1283
2996 2 1982
2996 3 1983
2997 1 1352
2997 2 1351
2997 3 2253
2998 1 1017
2998 2 1982
2998 3 1984
2999 1 1028
2999 2 1018
2999 3 1984
3000 1 917
3000 2 918
3000 3 1986
3001 1 1028
3001 2 1984
3001 3 1985
3002 1 1984
3002 2 1982
3002 3 1985
3003 1 1982
3003 2 1283
3003 3 1985
3004 1 918
3004 2 1028
3004 3 1986
3005 1 1028
3005 2 1985
3005 3 1986
3006 1 1985
3006 2 1283
3006 3 1986
3007 1 1283
3007 2 917
3007 3 1986
3008 1 13
3008 2 1128
3008 3 1987
3009 1 1128
3009 2 1371
3009 3 1987
3010 1 1371
3010 2 1981
3010 3 1987
3011 1 1981
3011 2 12
3011 3 1987
3012 1 1934
3012 2 889
3012 3 1988
3013 1 889
3013 2 1135
3013 3 1988
3014 1 1135
3014 2 1339
3014 3 1988
3015 1 1339
3015 2 1976
3015 3 1988
3016 1 1976
3016 2 888
3016 3 1988
3017 1 1989
3017 2 1338
3017 3 237
3018 1 1145
3018 2 1332
3018 3 1990
3019 1 1332
3019 2 1333
3019 3 1990
3020 1 1333
3020 2 1718
3020 3 1990
3021 1 1718
3021 2 1235
3021 3 1990
3022 1 82
3022 2 1079
3022 3 1991
3023 1 1079
3023 2 1326
3023 3 1991
3024 1 1326
3024 2 1190
3024 3 1991
3025 1 302
3025 2 1094
3025 3 1992
3026 1 1094
3026 2 1320
3026 3 1992
3027 1 1320
3027 2 1168
3027 3 1992
3028 1 1086
3028 2 1319
3028 3 1993
3029 1 833
3029 2 834
3029 3 1993
3030 1 1088
3030 2 872
3030 3 1996
3031 1 158
3031 2 159
3031 3 1998
3032 1 1088
3032 2 1996
3032 3 1997
3033 1 1996
3033 2 1995
3033 3 1997
3034 1 1317
3034 2 1994
3034 3 2002
3035 1 159
3035 2 1088
3035 3 1998
3036 1 1088
3036 2 1997
3036 3 1998
3037 1 1997
3037 2 1163
3037 3 1998
3038 1 1163
3038 2 158
3038 3 1998
3039 1 1130
3039 2 2007
3039 3 2298
3040 1 1163
3040 2 1997
3040 3 2000
3041 1 1997
3041 2 1995
3041 3 2000
3042 1 1995
3042 2 1999
3042 3 2000
3043 1 1131
3043 2 1163
3043 3 2001
3044 1 1163
3044 2 2000
3044 3 2001
3045 1 2000
3045 2 1999
3045 3 2001
3046 1 2001
3046 2 1999
3046 3 2002
3047 1 1130
3047 2 2002
3047 3 2003
3048 1 2002
3048 2 1994
3048 3 2003
3049 1 1994
3049 2 1310
3049 3 2003
3050 1 2003
3050 2 1310
3050 3 2004
3051 1 1307
3051 2 1312
3051 3 2252
3052 1 1312
3052 2 1271
3052 3 2251
3053 1 1130
3053 2 2006
3053 3 2007
3054 1 2006
3054 2 2005
3054 3 2007
3055 1 2005
3055 2 2006
3055 3 2008
3056 1 2006
3056 2 2004
3056 3 2008
3057 1 2005
3057 2 2008
3057 3 2009
3058 1 1271
3058 2 1273
3058 3 2010
3059 1 1273
3059 2 916
3059 3 2010
3060 1 916
3060 2 2009
3060 3 2010
3061 1 2005
3061 2 2009
3061 3 2011
3062 1 2009
3062 2 916
3062 3 2011
3063 1 916
3063 2 1278
3063 3 2011
3064 1 1278
3064 2 1279
3064 3 2011
3065 1 1241
3065 2 1162
3065 3 2012
3066 1 1162
3066 2 1131
3066 3 2013
3067 1 2005
3067 2 2011
3067 3 2012
3068 1 2011
3068 2 1279
3068 3 2012
3069 1 1131
3069 2 2007
3069 3 2013
3070 1 2007
3070 2 2005
3070 3 2013
3071 1 2005
3071 2 2012
3071 3 2013
3072 1 2012
3072 2 1162
3072 3 2013
3073 1 1239
3073 2 1241
3073 3 2014
3074 1 1241
3074 2 2012
3074 3 2014
3075 1 2012
3075 2 1279
3075 3 2014
3076 1 1995
3076 2 1996
3076 3 2015
3077 1 872
3077 2 684
3077 3 2016
3078 1 684
3078 2 683
3078 3 2016
3079 1 683
3079 2 2015
3079 3 2016
3080 1 2015
3080 2 1996
3080 3 2016
3081 1 1996
3081 2 872
3081 3 2016
3082 1 1317
3082 2 2002
3082 3 2250
3083 1 1995
3083 2 2015
3083 3 2018
3084 1 1444
3084 2 1443
3084 3 2020
3085 1 1995
3085 2 2018
3085 3 2019
3086 1 2018
3086 2 2017
3086 3 2019
3087 1 1443
3087 2 2017
3087 3 2020
3088 1 2017
3088 2 2018
3088 3 2020
3089 1 2018
3089 2 2015
3089 3 2020
3090 1 2015
3090 2 683
3090 3 2020
3091 1 683
3091 2 1445
3091 3 2020
3092 1 1445
3092 2 1444
3092 3 2020
3093 1 1443
3093 2 1452
3093 3 2025
3094 1 1450
3094 2 1301
3094 3 2021
3095 1 1306
3095 2 1316
3095 3 2249
3096 1 2019
3096 2 2017
3096 3 2021
3097 1 1999
3097 2 1995
3097 3 2022
3098 1 1995
3098 2 2019
3098 3 2022
3099 1 2019
3099 2 2021
3099 3 2023
3100 1 1301
3100 2 1302
3100 3 2248
3101 1 2022
3101 2 2019
3101 3 2024
3102 1 2019
3102 2 2023
3102 3 2024
3103 1 1452
3103 2 1450
3103 3 2025
3104 1 1450
3104 2 2021
3104 3 2025
3105 1 2021
3105 2 2017
3105 3 2025
3106 1 2017
3106 2 1443
3106 3 2025
3107 1 917
3107 2 1283
3107 3 2026
3108 1 1283
3108 2 1275
3108 3 2026
3109 1 1275
3109 2 1273
3109 3 2026
3110 1 952
3110 2 1282
3110 3 2027
3111 1 1282
3111 2 951
3111 3 2027
3112 1 1185
3112 2 952
3112 3 2029
3113 1 2027
3113 2 951
3113 3 2028
3114 1 951
3114 2 1281
3114 3 2031
3115 1 952
3115 2 2027
3115 3 2029
3116 1 2027
3116 2 2028
3116 3 2029
3117 1 2028
3117 2 1319
3117 3 2029
3118 1 1319
3118 2 1185
3118 3 2029
3119 1 1319
3119 2 2028
3119 3 2030
3120 1 1348
3120 2 1357
3120 3 2030
3121 1 1281
3121 2 1351
3121 3 2031
3122 1 1351
3122 2 1350
3122 3 2031
3123 1 1348
3123 2 2030
3123 3 2032
3124 1 2028
3124 2 951
3124 3 2031
3125 1 2030
3125 2 2028
3125 3 2032
3126 1 2028
3126 2 2031
3126 3 2032
3127 1 2031
3127 2 1350
3127 3 2032
3128 1 1350
3128 2 1348
3128 3 2032
3129 1 1203
3129 2 1240
3129 3 2034
3130 1 1279
3130 2 1276
3130 3 2033
3131 1 1240
3131 2 1239
3131 3 2034
3132 1 1239
3132 2 2014
3132 3 2034
3133 1 2014
3133 2 1279
3133 3 2034
3134 1 1279
3134 2 2033
3134 3 2034
3135 1 2033
3135 2 1203
3135 3 2034
3136 1 953
3136 2 1204
3136 3 2035
3137 1 1204
3137 2 1203
3137 3 2035
3138 1 1203
3138 2 2033
3138 3 2035
3139 1 2033
3139 2 1282
3139 3 2035
3140 1 1282
3140 2 952
3140 3 2035
3141 1 1277
3141 2 1274
3141 3 2036
3142 1 1281
3142 2 1280
3142 3 2036
3143 1 1006
3143 2 199
3143 3 2037
3144 1 199
3144 2 731
3144 3 2037
3145 1 731
3145 2 730
3145 3 2037
3146 1 730
3146 2 1881
3146 3 2037
3147 1 1881
3147 2 1266
3147 3 2037
3148 1 1266
3148 2 1263
3148 3 2037
3149 1 1265
3149 2 1251
3149 3 2038
3150 1 1251
3150 2 1249
3150 3 2038
3151 1 1717
3151 2 1260
3151 3 2040
3152 1 1257
3152 2 1264
3152 3 2039
3153 1 1264
3153 2 1265
3153 3 2039
3154 1 1265
3154 2 2038
3154 3 2039
3155 1 1260
3155 2 1257
3155 3 2040
3156 1 1257
3156 2 2039
3156 3 2040
3157 1 2039
3157 2 1248
3157 3 2040
3158 1 1248
3158 2 1717
3158 3 2040
3159 1 1252
3159 2 1251
3159 3 2041
3160 1 1251
3160 2 1265
3160 3 2041
3161 1 1265
3161 2 1262
3161 3 2041
3162 1 1262
3162 2 1883
3162 3 2041
3163 1 1883
3163 2 1256
3163 3 2041
3164 1 2039
3164 2 2038
3164 3 2042
3165 1 2038
3165 2 1249
3165 3 2042
3166 1 1249
3166 2 1254
3166 3 2042
3167 1 1254
3167 2 1248
3167 3 2042
3168 1 960
3168 2 1245
3168 3 2043
3169 1 2043
3169 2 1242
3169 3 2045
3170 1 1912
3170 2 1913
3170 3 2246
3171 1 1242
3171 2 1246
3171 3 2121
3172 1 960
3172 2 2043
3172 3 2046
3173 1 2043
3173 2 2045
3173 3 2046
3174 1 2045
3174 2 2044
3174 3 2046
3175 1 2046
3175 2 2044
3175 3 2048
3176 1 960
3176 2 2046
3176 3 2050
3177 1 2046
3177 2 2048
3177 3 2050
3178 1 2048
3178 2 2049
3178 3 2050
3179 1 964
3179 2 1943
3179 3 2075
3180 1 960
3180 2 2050
3180 3 2051
3181 1 2050
3181 2 2049
3181 3 2051
3182 1 2051
3182 2 2049
3182 3 2067
3183 1 1168
3183 2 1320
3183 3 2054
3184 1 1167
3184 2 1169
3184 3 2058
3185 1 1168
3185 2 2054
3185 3 2055
3186 1 2055
3186 2 2054
3186 3 2056
3187 1 1169
3187 2 1168
3187 3 2058
3188 1 1168
3188 2 2055
3188 3 2058
3189 1 2055
3189 2 1167
3189 3 2058
3190 1 2053
3190 2 2056
3190 3 2064
3191 1 781
3191 2 986
3191 3 2063
3192 1 873
3192 2 2071
3192 3 2247
3193 1 1320
3193 2 1183
3193 3 2061
3194 1 1183
3194 2 781
3194 3 2061
3195 1 2054
3195 2 1320
3195 3 2062
3196 1 1320
3196 2 2061
3196 3 2062
3197 1 2061
3197 2 2060
3197 3 2062
3198 1 986
3198 2 985
3198 3 2063
3199 1 2060
3199 2 2061
3199 3 2063
3200 1 2061
3200 2 781
3200 3 2063
3201 1 2056
3201 2 2054
3201 3 2064
3202 1 2054
3202 2 2062
3202 3 2064
3203 1 2062
3203 2 2059
3203 3 2064
3204 1 2053
3204 2 2064
3204 3 2065
3205 1 2064
3205 2 2059
3205 3 2065
3206 1 2059
3206 2 2052
3206 3 2065
3207 1 2052
3207 2 2067
3207 3 2069
3208 1 2051
3208 2 2067
3208 3 2068
3209 1 2067
3209 2 2052
3209 3 2068
3210 1 2052
3210 2 2059
3210 3 2071
3211 1 2067
3211 2 2049
3211 3 2069
3212 1 2049
3212 2 2048
3212 3 2070
3213 1 2048
3213 2 2047
3213 3 2070
3214 1 2066
3214 2 2069
3214 3 2070
3215 1 2069
3215 2 2049
3215 3 2070
3216 1 874
3216 2 1055
3216 3 2073
3217 1 2068
3217 2 2052
3217 3 2071
3218 1 2051
3218 2 2068
3218 3 2072
3219 1 1055
3219 2 964
3219 3 2072
3220 1 1055
3220 2 2072
3220 3 2073
3221 1 2072
3221 2 2068
3221 3 2073
3222 1 2068
3222 2 2071
3222 3 2073
3223 1 2071
3223 2 873
3223 3 2073
3224 1 873
3224 2 874
3224 3 2073
3225 1 2053
3225 2 2065
3225 3 2074
3226 1 2065
3226 2 2052
3226 3 2074
3227 1 2052
3227 2 2069
3227 3 2074
3228 1 2069
3228 2 2066
3228 3 2074
3229 1 1943
3229 2 1245
3229 3 2075
3230 1 1245
3230 2 960
3230 3 2075
3231 1 960
3231 2 2051
3231 3 2075
3232 1 2051
3232 2 2072
3232 3 2075
3233 1 2072
3233 2 964
3233 3 2075
3234 1 2047
3234 2 2048
3234 3 2120
3235 1 2048
3235 2 2044
3235 3 2077
3236 1 2076
3236 2 2077
3236 3 2078
3237 1 912
3237 2 2078
3237 3 2079
3238 1 2078
3238 2 2077
3238 3 2079
3239 1 2077
3239 2 2044
3239 3 2079
3240 1 2076
3240 2 2078
3240 3 2080
3241 1 2076
3241 2 2080
3241 3 2081
3242 1 1216
3242 2 1214
3242 3 2245
3243 1 2076
3243 2 2081
3243 3 2082
3244 1 2081
3244 2 1219
3244 3 2082
3245 1 2066
3245 2 2070
3245 3 2244
3246 1 1219
3246 2 1171
3246 3 2084
3247 1 2082
3247 2 1219
3247 3 2084
3248 1 2047
3248 2 2082
3248 3 2085
3249 1 2082
3249 2 2084
3249 3 2085
3250 1 2084
3250 2 2083
3250 3 2085
3251 1 1166
3251 2 2240
3251 3 2243
3252 1 2084
3252 2 1171
3252 3 2087
3253 1 2083
3253 2 2084
3253 3 2088
3254 1 2084
3254 2 2087
3254 3 2088
3255 1 2087
3255 2 2086
3255 3 2088
3256 1 2083
3256 2 2088
3256 3 2089
3257 1 2088
3257 2 2086
3257 3 2089
3258 1 2057
3258 2 2089
3258 3 2090
3259 1 2089
3259 2 2086
3259 3 2090
3260 1 2083
3260 2 2089
3260 3 2091
3261 1 2053
3261 2 2074
3261 3 2092
3262 1 2074
3262 2 2066
3262 3 2092
3263 1 2066
3263 2 2091
3263 3 2092
3264 1 2057
3264 2 2241
3264 3 2242
3265 1 2086
3265 2 2087
3265 3 2093
3266 1 1170
3266 2 2093
3266 3 2094
3267 1 2087
3267 2 1171
3267 3 2095
3268 1 1171
3268 2 1172
3268 3 2095
3269 1 2094
3269 2 2093
3269 3 2095
3270 1 2093
3270 2 2087
3270 3 2095
3271 1 1170
3271 2 2094
3271 3 2096
3272 1 2094
3272 2 1176
3272 3 2096
3273 1 1176
3273 2 1175
3273 3 2096
3274 1 1175
3274 2 1173
3274 3 2096
3275 1 2090
3275 2 2086
3275 3 2097
3276 1 2093
3276 2 1170
3276 3 2098
3277 1 2097
3277 2 2086
3277 3 2098
3278 1 2086
3278 2 2093
3278 3 2098
3279 1 2097
3279 2 2098
3279 3 2099
3280 1 2098
3280 2 1170
3280 3 2099
3281 1 1166
3281 2 2090
3281 3 2118
3282 1 2097
3282 2 2099
3282 3 2100
3283 1 2099
3283 2 1170
3283 3 2101
3284 1 1170
3284 2 2096
3284 3 2101
3285 1 2096
3285 2 1173
3285 3 2101
3286 1 2099
3286 2 2101
3286 3 2103
3287 1 2101
3287 2 1173
3287 3 2105
3288 1 2100
3288 2 2099
3288 3 2104
3289 1 2099
3289 2 2103
3289 3 2104
3290 1 2103
3290 2 2102
3290 3 2104
3291 1 779
3291 2 1087
3291 3 2115
3292 1 2102
3292 2 2103
3292 3 2105
3293 1 2103
3293 2 2101
3293 3 2105
3294 1 1787
3294 2 1790
3294 3 2106
3295 1 2104
3295 2 2102
3295 3 2106
3296 1 1592
3296 2 1788
3296 3 2108
3297 1 1787
3297 2 2106
3297 3 2107
3298 1 1788
3298 2 1787
3298 3 2108
3299 1 1787
3299 2 2107
3299 3 2108
3300 1 1753
3300 2 1754
3300 3 2109
3301 1 1750
3301 2 1744
3301 3 2112
3302 1 1749
3302 2 1748
3302 3 2111
3303 1 2108
3303 2 2107
3303 3 2109
3304 1 1752
3304 2 1753
3304 3 2110
3305 1 1753
3305 2 2109
3305 3 2110
3306 1 2109
3306 2 2107
3306 3 2110
3307 1 2107
3307 2 1752
3307 3 2110
3308 1 1748
3308 2 1592
3308 3 2111
3309 1 1592
3309 2 2108
3309 3 2111
3310 1 2108
3310 2 2109
3310 3 2111
3311 1 1744
3311 2 1749
3311 3 2112
3312 1 1749
3312 2 2111
3312 3 2112
3313 1 2111
3313 2 2109
3313 3 2112
3314 1 2109
3314 2 1754
3314 3 2112
3315 1 1754
3315 2 1750
3315 3 2112
3316 1 2105
3316 2 1769
3316 3 2114
3317 1 1752
3317 2 2107
3317 3 2113
3318 1 2107
3318 2 2106
3318 3 2113
3319 1 2106
3319 2 2102
3319 3 2113
3320 1 1769
3320 2 1752
3320 3 2114
3321 1 1752
3321 2 2113
3321 3 2114
3322 1 2113
3322 2 2102
3322 3 2114
3323 1 2102
3323 2 2105
3323 3 2114
3324 1 1087
3324 2 1770
3324 3 2115
3325 1 1770
3325 2 1769
3325 3 2115
3326 1 1769
3326 2 2105
3326 3 2115
3327 1 2105
3327 2 1173
3327 3 2115
3328 1 1173
3328 2 779
3328 3 2115
3329 1 2100
3329 2 2104
3329 3 2116
3330 1 2104
3330 2 2106
3330 3 2116
3331 1 2106
3331 2 1790
3331 3 2116
3332 1 2100
3332 2 2116
3332 3 2117
3333 1 2116
3333 2 1790
3333 3 2117
3334 1 2090
3334 2 2097
3334 3 2118
3335 1 2097
3335 2 2100
3335 3 2118
3336 1 2100
3336 2 2117
3336 3 2118
3337 1 1916
3337 2 912
3337 3 2119
3338 1 912
3338 2 2079
3338 3 2119
3339 1 2048
3339 2 2077
3339 3 2120
3340 1 2077
3340 2 2076
3340 3 2120
3341 1 2076
3341 2 2082
3341 3 2120
3342 1 2082
3342 2 2047
3342 3 2120
3343 1 2045
3343 2 1242
3343 3 2121
3344 1 2079
3344 2 2044
3344 3 2122
3345 1 2044
3345 2 2045
3345 3 2122
3346 1 2045
3346 2 2121
3346 3 2122
3347 1 1243
3347 2 1242
3347 3 2123
3348 1 1242
3348 2 2043
3348 3 2123
3349 1 2043
3349 2 1245
3349 3 2123
3350 1 1245
3350 2 1244
3350 3 2123
3351 1 1718
3351 2 1234
3351 3 2124
3352 1 1234
3352 2 1238
3352 3 2124
3353 1 1238
3353 2 1232
3353 3 2124
3354 1 1232
3354 2 1233
3354 3 2124
3355 1 1233
3355 2 1235
3355 3 2124
3356 1 1212
3356 2 1210
3356 3 2125
3357 1 1210
3357 2 1216
3357 3 2125
3358 1 913
3358 2 914
3358 3 2130
3359 1 2125
3359 2 1216
3359 3 2126
3360 1 2080
3360 2 2078
3360 3 2127
3361 1 2078
3361 2 912
3361 3 2127
3362 1 912
3362 2 2126
3362 3 2127
3363 1 2126
3363 2 1216
3363 3 2127
3364 1 1216
3364 2 2080
3364 3 2127
3365 1 2125
3365 2 2126
3365 3 2128
3366 1 2126
3366 2 912
3366 3 2129
3367 1 912
3367 2 1916
3367 3 2129
3368 1 1916
3368 2 913
3368 3 2129
3369 1 913
3369 2 2128
3369 3 2129
3370 1 2128
3370 2 2126
3370 3 2129
3371 1 914
3371 2 1035
3371 3 2130
3372 1 1212
3372 2 2125
3372 3 2131
3373 1 2128
3373 2 913
3373 3 2130
3374 1 2125
3374 2 2128
3374 3 2131
3375 1 2128
3375 2 2130
3375 3 2131
3376 1 1010
3376 2 1011
3376 3 2132
3377 1 1011
3377 2 1212
3377 3 2132
3378 1 1212
3378 2 2131
3378 3 2132
3379 1 2131
3379 2 2130
3379 3 2132
3380 1 2130
3380 2 1035
3380 3 2132
3381 1 868
3381 2 1137
3381 3 2133
3382 1 1137
3382 2 1201
3382 3 2133
3383 1 1201
3383 2 1200
3383 3 2133
3384 1 1200
3384 2 989
3384 3 2133
3385 1 1328
3385 2 1112
3385 3 2134
3386 1 1112
3386 2 1198
3386 3 2134
3387 1 66
3387 2 2149
3387 3 2150
3388 1 1318
3388 2 449
3388 3 2135
3389 1 449
3389 2 450
3389 3 2135
3390 1 450
3390 2 1191
3390 3 2135
3391 1 1191
3391 2 1269
3391 3 2135
3392 1 1269
3392 2 1187
3392 3 2135
3393 1 2136
3393 2 1190
3393 3 81
3394 1 1991
3394 2 2136
3394 3 82
3395 1 1907
3395 2 1906
3395 3 2146
3396 1 1182
3396 2 2137
3396 3 2138
3397 1 2137
3397 2 1096
3397 3 2138
3398 1 1510
3398 2 1907
3398 3 2232
3399 1 1182
3399 2 2138
3399 3 2140
3400 1 2138
3400 2 1096
3400 3 2141
3401 1 1096
3401 2 1149
3401 3 2141
3402 1 2138
3402 2 2141
3402 3 2142
3403 1 2141
3403 2 1102
3403 3 2142
3404 1 1102
3404 2 1101
3404 3 2142
3405 1 1489
3405 2 1496
3405 3 2145
3406 1 2139
3406 2 2140
3406 3 2143
3407 1 2140
3407 2 2138
3407 3 2143
3408 1 2138
3408 2 2142
3408 3 2143
3409 1 2142
3409 2 1101
3409 3 2143
3410 1 2139
3410 2 2143
3410 3 2144
3411 1 2143
3411 2 1495
3411 3 2144
3412 1 1496
3412 2 1495
3412 3 2145
3413 1 1495
3413 2 2143
3413 3 2145
3414 1 1906
3414 2 982
3414 3 2146
3415 1 982
3415 2 844
3415 3 2146
3416 1 844
3416 2 2137
3416 3 2146
3417 1 2137
3417 2 1182
3417 3 2146
3418 1 1182
3418 2 1907
3418 3 2146
3419 1 2147
3419 2 1181
3419 3 433
3420 1 1220
3420 2 383
3420 3 2148
3421 1 383
3421 2 1176
3421 3 2148
3422 1 1176
3422 2 2094
3422 3 2148
3423 1 2094
3423 2 2095
3423 3 2148
3424 1 2095
3424 2 1172
3424 3 2148
3425 1 2149
3425 2 67
3425 3 2150
3426 1 67
3426 2 1165
3426 3 2150
3427 1 1165
3427 2 2134
3427 3 2150
3428 1 2134
3428 2 1198
3428 3 2150
3429 1 1198
3429 2 66
3429 3 2150
3430 1 429
3430 2 1102
3430 3 2151
3431 1 1102
3431 2 2141
3431 3 2151
3432 1 2141
3432 2 1149
3432 3 2151
3433 1 1149
3433 2 1150
3433 3 2151
3434 1 1150
3434 2 428
3434 3 2151
3435 1 295
3435 2 944
3435 3 2152
3436 1 944
3436 2 1779
3436 3 2152
3437 1 1779
3437 2 1781
3437 3 2152
3438 1 1781
3438 2 1143
3438 3 2152
3439 1 1143
3439 2 294
3439 3 2152
3440 1 292
3440 2 293
3440 3 2153
3441 1 293
3441 2 1143
3441 3 2153
3442 1 1143
3442 2 288
3442 3 2153
3443 1 288
3443 2 289
3443 3 2153
3444 1 240
3444 2 841
3444 3 2154
3445 1 841
3445 2 840
3445 3 2154
3446 1 840
3446 2 1139
3446 3 2154
3447 1 1139
3447 2 1877
3447 3 2154
3448 1 1877
3448 2 239
3448 3 2154
3449 1 1244
3449 2 961
3449 3 2155
3450 1 961
3450 2 962
3450 3 2155
3451 1 962
3451 2 1121
3451 3 2155
3452 1 1121
3452 2 1122
3452 3 2155
3453 1 1122
3453 2 340
3453 3 2156
3454 1 340
3454 2 1032
3454 3 2156
3455 1 1032
3455 2 1031
3455 3 2156
3456 1 1031
3456 2 2155
3456 3 2156
3457 1 2155
3457 2 1122
3457 3 2156
3458 1 1117
3458 2 978
3458 3 2157
3459 1 1846
3459 2 1850
3459 3 2157
3460 1 1850
3460 2 1221
3460 3 2157
3461 1 1844
3461 2 1845
3461 3 2161
3462 1 1846
3462 2 2157
3462 3 2158
3463 1 864
3463 2 1291
3463 3 2160
3464 1 1295
3464 2 2158
3464 3 2159
3465 1 2158
3465 2 2157
3465 3 2159
3466 1 2157
3466 2 978
3466 3 2159
3467 1 1291
3467 2 1295
3467 3 2160
3468 1 1295
3468 2 2159
3468 3 2160
3469 1 2159
3469 2 978
3469 3 2160
3470 1 978
3470 2 864
3470 3 2160
3471 1 1845
3471 2 1846
3471 3 2161
3472 1 1846
3472 2 2158
3472 3 2161
3473 1 1295
3473 2 1293
3473 3 2163
3474 1 1292
3474 2 1844
3474 3 2162
3475 1 1844
3475 2 2161
3475 3 2162
3476 1 2161
3476 2 2158
3476 3 2162
3477 1 1293
3477 2 1292
3477 3 2163
3478 1 1292
3478 2 2162
3478 3 2163
3479 1 2162
3479 2 2158
3479 3 2163
3480 1 2158
3480 2 1295
3480 3 2163
3481 1 703
3481 2 1961
3481 3 2164
3482 1 1109
3482 2 704
3482 3 2164
3483 1 272
3483 2 735
3483 3 2165
3484 1 735
3484 2 734
3484 3 2165
3485 1 734
3485 2 1103
3485 3 2165
3486 1 1092
3486 2 2165
3486 3 2166
3487 1 2165
3487 2 1103
3487 3 2166
3488 1 1091
3488 2 2166
3488 3 2167
3489 1 1730
3489 2 1621
3489 3 2168
3490 1 1621
3490 2 1722
3490 3 2168
3491 1 2167
3491 2 1730
3491 3 2168
3492 1 1732
3492 2 1726
3492 3 2170
3493 1 1730
3493 2 2167
3493 3 2169
3494 1 2167
3494 2 2166
3494 3 2169
3495 1 2166
3495 2 1103
3495 3 2169
3496 1 1726
3496 2 1730
3496 3 2170
3497 1 1730
3497 2 2169
3497 3 2170
3498 1 2169
3498 2 1103
3498 3 2170
3499 1 1103
3499 2 1732
3499 3 2170
3500 1 1091
3500 2 2167
3500 3 2172
3501 1 1388
3501 2 1093
3501 3 2173
3502 1 1093
3502 2 1091
3502 3 2173
3503 1 1091
3503 2 2172
3503 3 2173
3504 1 2172
3504 2 2171
3504 3 2173
3505 1 265
3505 2 266
3505 3 2174
3506 1 266
3506 2 983
3506 3 2174
3507 1 271
3507 2 1092
3507 3 2175
3508 1 1093
3508 2 264
3508 3 2174
3509 1 1092
3509 2 1093
3509 3 2175
3510 1 1093
3510 2 2174
3510 3 2175
3511 1 2174
3511 2 983
3511 3 2175
3512 1 983
3512 2 271
3512 3 2175
3513 1 2176
3513 2 780
3513 3 388
3514 1 1034
3514 2 1285
3514 3 2177
3515 1 1285
3515 2 1189
3515 3 2177
3516 1 1189
3516 2 1033
3516 3 2177
3517 1 709
3517 2 710
3517 3 2178
3518 1 710
3518 2 891
3518 3 2178
3519 1 891
3519 2 1077
3519 3 2178
3520 1 1077
3520 2 1106
3520 3 2179
3521 1 1106
3521 2 59
3521 3 2179
3522 1 2178
3522 2 1077
3522 3 2179
3523 1 709
3523 2 2178
3523 3 2180
3524 1 2178
3524 2 2179
3524 3 2180
3525 1 2179
3525 2 59
3525 3 2180
3526 1 2180
3526 2 2181
3526 3 60
3527 1 2181
3527 2 2180
3527 3 59
3528 1 834
3528 2 833
3528 3 2183
3529 1 1053
3529 2 834
3529 3 2183
3530 1 1053
3530 2 2183
3530 3 2184
3531 1 2183
3531 2 2182
3531 3 2184
3532 1 853
3532 2 1052
3532 3 2191
3533 1 1051
3533 2 2184
3533 3 2185
3534 1 2184
3534 2 2182
3534 3 2185
3535 1 1358
3535 2 1362
3535 3 2187
3536 1 1363
3536 2 975
3536 3 2189
3537 1 1358
3537 2 2187
3537 3 2188
3538 1 2187
3538 2 2186
3538 3 2188
3539 1 2185
3539 2 2182
3539 3 2188
3540 1 2186
3540 2 2187
3540 3 2189
3541 1 2187
3541 2 1362
3541 3 2189
3542 1 1362
3542 2 1363
3542 3 2189
3543 1 1357
3543 2 1353
3543 3 2218
3544 1 832
3544 2 1356
3544 3 2217
3545 1 1358
3545 2 2188
3545 3 2190
3546 1 2182
3546 2 2183
3546 3 2216
3547 1 1052
3547 2 1051
3547 3 2191
3548 1 1051
3548 2 2185
3548 3 2191
3549 1 975
3549 2 976
3549 3 2194
3550 1 1049
3550 2 1050
3550 3 2193
3551 1 2185
3551 2 2188
3551 3 2215
3552 1 2186
3552 2 2189
3552 3 2214
3553 1 1050
3553 2 853
3553 3 2193
3554 1 853
3554 2 2191
3554 3 2193
3555 1 2191
3555 2 2192
3555 3 2193
3556 1 976
3556 2 1049
3556 3 2194
3557 1 1049
3557 2 2193
3557 3 2194
3558 1 2193
3558 2 2192
3558 3 2194
3559 1 314
3559 2 315
3559 3 2195
3560 1 315
3560 2 318
3560 3 2195
3561 1 318
3561 2 1047
3561 3 2195
3562 1 1047
3562 2 310
3562 3 2195
3563 1 310
3563 2 311
3563 3 2195
3564 1 2196
3564 2 1028
3564 3 454
3565 1 61
3565 2 707
3565 3 2197
3566 1 707
3566 2 1427
3566 3 2197
3567 1 1427
3567 2 1026
3567 3 2197
3568 1 1026
3568 2 709
3568 3 2197
3569 1 709
3569 2 2180
3569 3 2197
3570 1 2180
3570 2 60
3570 3 2197
3571 1 2199
3571 2 1008
3571 3 2198
3572 1 1008
3572 2 141
3572 3 2198
3573 1 2198
3573 2 2201
3573 3 971
3574 1 1008
3574 2 2199
3574 3 136
3575 1 2060
3575 2 2063
3575 3 2200
3576 1 2063
3576 2 985
3576 3 2200
3577 1 985
3577 2 1048
3577 3 2200
3578 1 1048
3578 2 874
3578 3 2200
3579 1 972
3579 2 2201
3579 3 142
3580 1 2201
3580 2 2198
3580 3 141
3581 1 2202
3581 2 1376
3581 3 326
3582 1 1376
3582 2 2202
3582 3 1124
3583 1 679
3583 2 1529
3583 3 2203
3584 1 1529
3584 2 1134
3584 3 2203
3585 1 1134
3585 2 680
3585 3 2203
3586 1 894
3586 2 895
3586 3 2204
3587 1 895
3587 2 1076
3587 3 2204
3588 1 1076
3588 2 1887
3588 3 2204
3589 1 1887
3589 2 881
3589 3 2204
3590 1 704
3590 2 705
3590 3 2205
3591 1 705
3591 2 894
3591 3 2205
3592 1 894
3592 2 2204
3592 3 2205
3593 1 2204
3593 2 881
3593 3 2205
3594 1 703
3594 2 2164
3594 3 2210
3595 1 881
3595 2 882
3595 3 2207
3596 1 882
3596 2 1022
3596 3 2207
3597 1 1022
3597 2 2206
3597 3 2207
3598 1 2206
3598 2 2205
3598 3 2207
3599 1 2205
3599 2 881
3599 3 2207
3600 1 676
3600 2 407
3600 3 2208
3601 1 407
3601 2 843
3601 3 2208
3602 1 843
3602 2 842
3602 3 2208
3603 1 842
3603 2 670
3603 3 2208
3604 1 670
3604 2 671
3604 3 2208
3605 1 2209
3605 2 768
3605 3 55
3606 1 2209
3606 2 1381
3606 3 768
3607 1 2164
3607 2 704
3607 3 2210
3608 1 704
3608 2 2205
3608 3 2210
3609 1 2205
3609 2 2206
3609 3 2210
3610 1 1965
3610 2 1964
3610 3 2213
3611 1 703
3611 2 2210
3611 3 2211
3612 1 2210
3612 2 2206
3612 3 2211
3613 1 1022
3613 2 1141
3613 3 2212
3614 1 1141
3614 2 1140
3614 3 2212
3615 1 1140
3615 2 2211
3615 3 2212
3616 1 2211
3616 2 2206
3616 3 2212
3617 1 2206
3617 2 1022
3617 3 2212
3618 1 1964
3618 2 703
3618 3 2213
3619 1 703
3619 2 2211
3619 3 2213
3620 1 2211
3620 2 1140
3620 3 2213
3621 1 1140
3621 2 1929
3621 3 2213
3622 1 1929
3622 2 1965
3622 3 2213
3623 1 2189
3623 2 975
3623 3 2214
3624 1 975
3624 2 2194
3624 3 2214
3625 1 2194
3625 2 2192
3625 3 2214
3626 1 2188
3626 2 2186
3626 3 2215
3627 1 2186
3627 2 2214
3627 3 2215
3628 1 2214
3628 2 2192
3628 3 2215
3629 1 2192
3629 2 2191
3629 3 2215
3630 1 2191
3630 2 2185
3630 3 2215
3631 1 2183
3631 2 833
3631 3 2216
3632 1 2190
3632 2 2188
3632 3 2216
3633 1 2188
3633 2 2182
3633 3 2216
3634 1 1356
3634 2 1359
3634 3 2217
3635 1 1359
3635 2 1358
3635 3 2217
3636 1 1358
3636 2 2190
3636 3 2217
3637 1 1353
3637 2 832
3637 3 2218
3638 1 832
3638 2 2217
3638 3 2218
3639 1 2217
3639 2 2190
3639 3 2218
3640 1 2190
3640 2 2216
3640 3 2218
3641 1 2216
3641 2 833
3641 3 2218
3642 1 1722
3642 2 1723
3642 3 2220
3643 1 1723
3643 2 1720
3643 3 2220
3644 1 2167
3644 2 2168
3644 3 2223
3645 1 1722
3645 2 2220
3645 3 2221
3646 1 2220
3646 2 2219
3646 3 2221
3647 1 2219
3647 2 2220
3647 3 2222
3648 1 2220
3648 2 1720
3648 3 2222
3649 1 1720
3649 2 1719
3649 3 2222
3650 1 1719
3650 2 1638
3650 3 2222
3651 1 2168
3651 2 1722
3651 3 2223
3652 1 1722
3652 2 2221
3652 3 2223
3653 1 2221
3653 2 2171
3653 3 2223
3654 1 2171
3654 2 2172
3654 3 2223
3655 1 2172
3655 2 2167
3655 3 2223
3656 1 2219
3656 2 2222
3656 3 2224
3657 1 2222
3657 2 1638
3657 3 2224
3658 1 1638
3658 2 1640
3658 3 2224
3659 1 2171
3659 2 2221
3659 3 2228
3660 1 2219
3660 2 2224
3660 3 2225
3661 1 1640
3661 2 1718
3661 3 2227
3662 1 1334
3662 2 2225
3662 3 2226
3663 1 2225
3663 2 2224
3663 3 2226
3664 1 1718
3664 2 1333
3664 3 2227
3665 1 1333
3665 2 2226
3665 3 2227
3666 1 2226
3666 2 2224
3666 3 2227
3667 1 2224
3667 2 1640
3667 3 2227
3668 1 2221
3668 2 2219
3668 3 2228
3669 1 2219
3669 2 2225
3669 3 2228
3670 1 1147
3670 2 262
3670 3 2230
3671 1 1388
3671 2 2173
3671 3 2229
3672 1 2173
3672 2 2171
3672 3 2229
3673 1 2171
3673 2 2228
3673 3 2229
3674 1 2228
3674 2 2225
3674 3 2229
3675 1 2225
3675 2 1334
3675 3 2229
3676 1 262
3676 2 1388
3676 3 2230
3677 1 1388
3677 2 2229
3677 3 2230
3678 1 2229
3678 2 1334
3678 3 2230
3679 1 1334
3679 2 1147
3679 3 2230
3680 1 1494
3680 2 1489
3680 3 2231
3681 1 1489
3681 2 2145
3681 3 2231
3682 1 2145
3682 2 2143
3682 3 2231
3683 1 2143
3683 2 1101
3683 3 2231
3684 1 1907
3684 2 1182
3684 3 2232
3685 1 1182
3685 2 2140
3685 3 2232
3686 1 2140
3686 2 2139
3686 3 2232
3687 1 2139
3687 2 2144
3687 3 2235
3688 1 1513
3688 2 1512
3688 3 2234
3689 1 1504
3689 2 1510
3689 3 2233
3690 1 1510
3690 2 2232
3690 3 2233
3691 1 1512
3691 2 1504
3691 3 2234
3692 1 1504
3692 2 2233
3692 3 2234
3693 1 2233
3693 2 1514
3693 3 2234
3694 1 1514
3694 2 1513
3694 3 2234
3695 1 2144
3695 2 1514
3695 3 2235
3696 1 1514
3696 2 2233
3696 3 2235
3697 1 2233
3697 2 2232
3697 3 2235
3698 1 2232
3698 2 2139
3698 3 2235
3699 1 2055
3699 2 2056
3699 3 2241
3700 1 1166
3700 2 2118
3700 3 2239
3701 1 2117
3701 2 1790
3701 3 2238
3702 1 1794
3702 2 1795
3702 3 2237
3703 1 1795
3703 2 1167
3703 3 2237
3704 1 1790
3704 2 1785
3704 3 2238
3705 1 1785
3705 2 1794
3705 3 2238
3706 1 1794
3706 2 2237
3706 3 2238
3707 1 2237
3707 2 2236
3707 3 2238
3708 1 2118
3708 2 2117
3708 3 2239
3709 1 2117
3709 2 2238
3709 3 2239
3710 1 2238
3710 2 2236
3710 3 2239
3711 1 2236
3711 2 1166
3711 3 2239
3712 1 1166
3712 2 2236
3712 3 2240
3713 1 2236
3713 2 2237
3713 3 2240
3714 1 2237
3714 2 1167
3714 3 2240
3715 1 1167
3715 2 2055
3715 3 2240
3716 1 2240
3716 2 2055
3716 3 2241
3717 1 2241
3717 2 2056
3717 3 2242
3718 1 2056
3718 2 2053
3718 3 2242
3719 1 2053
3719 2 2092
3719 3 2242
3720 1 2092
3720 2 2091
3720 3 2242
3721 1 2091
3721 2 2089
3721 3 2242
3722 1 2089
3722 2 2057
3722 3 2242
3723 1 2240
3723 2 2241
3723 3 2243
3724 1 2241
3724 2 2057
3724 3 2243
3725 1 2057
3725 2 2090
3725 3 2243
3726 1 2090
3726 2 1166
3726 3 2243
3727 1 2070
3727 2 2047
3727 3 2244
3728 1 2047
3728 2 2085
3728 3 2244
3729 1 2085
3729 2 2083
3729 3 2244
3730 1 2083
3730 2 2091
3730 3 2244
3731 1 2091
3731 2 2066
3731 3 2244
3732 1 1214
3732 2 1219
3732 3 2245
3733 1 1219
3733 2 2081
3733 3 2245
3734 1 2081
3734 2 2080
3734 3 2245
3735 1 2080
3735 2 1216
3735 3 2245
3736 1 1913
3736 2 1917
3736 3 2246
3737 1 1917
3737 2 1916
3737 3 2246
3738 1 1916
3738 2 2119
3738 3 2246
3739 1 2119
3739 2 1912
3739 3 2246
3740 1 2071
3740 2 2059
3740 3 2247
3741 1 2059
3741 2 2062
3741 3 2247
3742 1 2062
3742 2 2060
3742 3 2247
3743 1 2060
3743 2 2200
3743 3 2247
3744 1 2200
3744 2 873
3744 3 2247
3745 1 1302
3745 2 1306
3745 3 2248
3746 1 2023
3746 2 2021
3746 3 2248
3747 1 2021
3747 2 1301
3747 3 2248
3748 1 1316
3748 2 1994
3748 3 2249
3749 1 1994
3749 2 1317
3749 3 2249
3750 1 1317
3750 2 2024
3750 3 2249
3751 1 2024
3751 2 2023
3751 3 2249
3752 1 2023
3752 2 2248
3752 3 2249
3753 1 2248
3753 2 1306
3753 3 2249
3754 1 2002
3754 2 1999
3754 3 2250
3755 1 1999
3755 2 2022
3755 3 2250
3756 1 2022
3756 2 2024
3756 3 2250
3757 1 2024
3757 2 1317
3757 3 2250
3758 1 1271
3758 2 2010
3758 3 2251
3759 1 2010
3759 2 2009
3759 3 2251
3760 1 2009
3760 2 2008
3760 3 2251
3761 1 2008
3761 2 1312
3761 3 2251
3762 1 1312
3762 2 2008
3762 3 2252
3763 1 2008
3763 2 2004
3763 3 2252
3764 1 2004
3764 2 1310
3764 3 2252
3765 1 1310
3765 2 1307
3765 3 2252
3766 1 1351
3766 2 1281
3766 3 2253
3767 1 1281
3767 2 2036
3767 3 2253
3768 1 2036
3768 2 1274
3768 3 2253
3769 1 1274
3769 2 1983
3769 3 2253
3770 1 1983
3770 2 1982
3770 3 2253
3771 1 1982
3771 2 1352
3771 3 2253
3772 1 1962
3772 2 1043
3772 3 2254
3773 1 1043
3773 2 1963
3773 3 2254
3774 1 1963
3774 2 1044
3774 3 2254
3775 1 1044
3775 2 1045
3775 3 2254
3776 1 1045
3776 2 1109
3776 3 2254
3777 1 2164
3777 2 1961
3777 3 2255
3778 1 1961
3778 2 1962
3778 3 2255
3779 1 1962
3779 2 2254
3779 3 2255
3780 1 2254
3780 2 1109
3780 3 2255
3781 1 2256
3781 2 2257
3781 3 126
3782 1 126
3782 2 1935
3782 3 2256
3783 1 1935
3783 2 1937
3783 3 2256
3784 1 1937
3784 2 1179
3784 3 2256
3785 1 2257
3785 2 1179
3785 3 125
3786 1 1179
3786 2 2257
3786 3 2256
3787 1 1069
3787 2 1068
3787 3 2258
3788 1 1068
3788 2 1915
3788 3 2258
3789 1 1915
3789 2 1914
3789 3 2258
3790 1 1189
3790 2 1284
3790 3 2259
3791 1 1284
3791 2 2258
3791 3 2259
3792 1 2258
3792 2 1914
3792 3 2259
3793 1 2122
3793 2 2121
3793 3 2264
3794 1 2259
3794 2 1914
3794 3 2260
3795 1 1914
3795 2 1915
3795 3 2261
3796 1 1915
3796 2 1913
3796 3 2261
3797 1 1913
3797 2 1912
3797 3 2261
3798 1 1912
3798 2 2119
3798 3 2262
3799 1 2260
3799 2 1914
3799 3 2261
3800 1 2119
3800 2 2079
3800 3 2262
3801 1 2079
3801 2 2122
3801 3 2262
3802 1 2260
3802 2 2261
3802 3 2262
3803 1 2261
3803 2 1912
3803 3 2262
3804 1 1033
3804 2 2259
3804 3 2263
3805 1 2259
3805 2 2260
3805 3 2263
3806 1 2121
3806 2 1246
3806 3 2264
3807 1 1246
3807 2 2263
3807 3 2264
3808 1 2263
3808 2 2260
3808 3 2264
3809 1 2260
3809 2 2262
3809 3 2264
3810 1 2262
3810 2 2122
3810 3 2264
3811 1 359
3811 2 360
3811 3 2265
3812 1 360
3812 2 1071
3812 3 2265
3813 1 1071
3813 2 1910
3813 3 2265
3814 1 1910
3814 2 1184
3814 3 2265
3815 1 1459
3815 2 1866
3815 3 2266
3816 1 1866
3816 2 1849
3816 3 2266
3817 1 1849
3817 2 1446
3817 3 2266
3818 1 1491
3818 2 1493
3818 3 2267
3819 1 1493
3819 2 1492
3819 3 2267
3820 1 1492
3820 2 1862
3820 3 2267
3821 1 1862
3821 2 1868
3821 3 2267
3822 1 1868
3822 2 1477
3822 3 2267
3823 1 1815
3823 2 1582
3823 3 2268
3824 1 1582
3824 2 1404
3824 3 2268
3825 1 1404
3825 2 1813
3825 3 2268
3826 1 1813
3826 2 1410
3826 3 2268
3827 1 1410
3827 2 1405
3827 3 2268
3828 1 1755
3828 2 1591
3828 3 2269
3829 1 1591
3829 2 1588
3829 3 2269
3830 1 1588
3830 2 1799
3830 3 2269
3831 1 1799
3831 2 1744
3831 3 2269
3832 1 1744
3832 2 1750
3832 3 2269
3833 1 1754
3833 2 1753
3833 3 2270
3834 1 1753
3834 2 1771
3834 3 2270
3835 1 1771
3835 2 1760
3835 3 2270
3836 1 1760
3836 2 1758
3836 3 2270
3837 1 1758
3837 2 1751
3837 3 2270
3838 1 1642
3838 2 1641
3838 3 2271
3839 1 1641
3839 2 1713
3839 3 2271
3840 1 1718
3840 2 1640
3840 3 2272
3841 1 1640
3841 2 1636
3841 3 2272
3842 1 1636
3842 2 2271
3842 3 2272
3843 1 2271
3843 2 1713
3843 3 2272
3844 1 1713
3844 2 1716
3844 3 2272
3845 1 1716
3845 2 1234
3845 3 2272
3846 1 1566
3846 2 926
3846 3 2273
3847 1 926
3847 2 1700
3847 3 2273
3848 1 1700
3848 2 1697
3848 3 2273
3849 1 1697
3849 2 1696
3849 3 2273
3850 1 1696
3850 2 1562
3850 3 2273
3851 1 1379
3851 2 957
3851 3 2274
3852 1 957
3852 2 1652
3852 3 2274
3853 1 1652
3853 2 1655
3853 3 2274
3854 1 1655
3854 2 1056
3854 3 2274
3855 1 1056
3855 2 958
3855 3 2274
3856 1 1632
3856 2 1709
3856 3 2275
3857 1 1709
3857 2 1651
3857 3 2275
3858 1 1651
3858 2 1648
3858 3 2275
3859 1 1648
3859 2 956
3859 3 2275
3860 1 1745
3860 2 1604
3860 3 2276
3861 1 1604
3861 2 1809
3861 3 2276
3862 1 1809
3862 2 1605
3862 3 2276
3863 1 1602
3863 2 1600
3863 3 2277
3864 1 1600
3864 2 1595
3864 3 2277
3865 1 1595
3865 2 1601
3865 3 2277
3866 1 1601
3866 2 1725
3866 3 2277
3867 1 1725
3867 2 1617
3867 3 2277
3868 1 1617
3868 2 908
3868 3 2277
3869 1 1544
3869 2 1578
3869 3 2278
3870 1 1578
3870 2 1576
3870 3 2278
3871 1 1576
3871 2 1816
3871 3 2278
3872 1 1816
3872 2 1411
3872 3 2278
3873 1 996
3873 2 1065
3873 3 2279
3874 1 1065
3874 2 1567
3874 3 2279
3875 1 1567
3875 2 1566
3875 3 2279
3876 1 1566
3876 2 1565
3876 3 2279
3877 1 726
3877 2 996
3877 3 2280
3878 1 996
3878 2 2279
3878 3 2280
3879 1 2279
3879 2 1565
3879 3 2280
3880 1 1565
3880 2 679
3880 3 2280
3881 1 679
3881 2 2203
3881 3 2280
3882 1 2203
3882 2 680
3882 3 2280
3883 1 1524
3883 2 1525
3883 3 2281
3884 1 1525
3884 2 1528
3884 3 2281
3885 1 1528
3885 2 1523
3885 3 2281
3886 1 1496
3886 2 1498
3886 3 2282
3887 1 1498
3887 2 1497
3887 3 2282
3888 1 1497
3888 2 1514
3888 3 2282
3889 1 1514
3889 2 2144
3889 3 2282
3890 1 2144
3890 2 1495
3890 3 2282
3891 1 1102
3891 2 1386
3891 3 2283
3892 1 1386
3892 2 1382
3892 3 2283
3893 1 1382
3893 2 1825
3893 3 2283
3894 1 1825
3894 2 1494
3894 3 2283
3895 1 1494
3895 2 2231
3895 3 2283
3896 1 2231
3896 2 1101
3896 3 2283
3897 1 1479
3897 2 1484
3897 3 2284
3898 1 1484
3898 2 1477
3898 3 2284
3899 1 1477
3899 2 1478
3899 3 2284
3900 1 1457
3900 2 1474
3900 3 2285
3901 1 1474
3901 2 1456
3901 3 2285
3902 1 1456
3902 2 1869
3902 3 2285
3903 1 1869
3903 2 1459
3903 3 2285
3904 1 1459
3904 2 2266
3904 3 2285
3905 1 2266
3905 2 1458
3905 3 2285
3906 1 904
3906 2 902
3906 3 2286
3907 1 902
3907 2 1074
3907 3 2286
3908 1 1074
3908 2 1073
3908 3 2286
3909 1 1073
3909 2 1415
3909 3 2286
3910 1 1415
3910 2 903
3910 3 2286
3911 1 1058
3911 2 1057
3911 3 2287
3912 1 1057
3912 2 1406
3912 3 2287
3913 1 1406
3913 2 1408
3913 3 2287
3914 1 1408
3914 2 1407
3914 3 2287
3915 1 1407
3915 2 1761
3915 3 2287
3916 1 1761
3916 2 935
3916 3 2287
3917 1 1993
3917 2 1319
3917 3 2288
3918 1 1319
3918 2 2030
3918 3 2288
3919 1 2030
3919 2 1357
3919 3 2288
3920 1 1357
3920 2 2218
3920 3 2288
3921 1 2218
3921 2 833
3921 3 2288
3922 1 1144
3922 2 1147
3922 3 2289
3923 1 1147
3923 2 1334
3923 3 2289
3924 1 1334
3924 2 2226
3924 3 2289
3925 1 2226
3925 2 1333
3925 3 2289
3926 1 1034
3926 2 2177
3926 3 2290
3927 1 2177
3927 2 1033
3927 3 2290
3928 1 1033
3928 2 2263
3928 3 2290
3929 1 2263
3929 2 1246
3929 3 2290
3930 1 1246
3930 2 1243
3930 3 2290
3931 1 1243
3931 2 1196
3931 3 2290
3932 1 156
3932 2 1132
3932 3 2291
3933 1 1132
3933 2 1162
3933 3 2291
3934 1 1162
3934 2 1241
3934 3 2291
3935 1 1241
3935 2 155
3935 3 2291
3936 1 1230
3936 2 123
3936 3 2292
3937 1 123
3937 2 124
3937 3 2292
3938 1 124
3938 2 125
3938 3 2292
3939 1 125
3939 2 1179
3939 3 2292
3940 1 1179
3940 2 1178
3940 3 2292
3941 1 1178
3941 2 1116
3941 3 2292
3942 1 261
3942 2 1147
3942 3 2293
3943 1 1147
3943 2 1144
3943 3 2293
3944 1 1144
3944 2 1148
3944 3 2293
3945 1 1148
3945 2 259
3945 3 2293
3946 1 259
3946 2 260
3946 3 2293
3947 1 1050
3947 2 1049
3947 3 2294
3948 1 1049
3948 2 135
3948 3 2294
3949 1 135
3949 2 2199
3949 3 2294
3950 1 2199
3950 2 2198
3950 3 2294
3951 1 2198
3951 2 971
3951 3 2294
3952 1 230
3952 2 1337
3952 3 2296
3953 1 1337
3953 2 886
3953 3 2296
3954 1 886
3954 2 887
3954 3 2296
3955 1 887
3955 2 226
3955 3 2296
3956 1 226
3956 2 229
3956 3 2296
3957 1 229
3957 2 2295
3957 3 2296
3958 1 841
3958 2 242
3958 3 2297
3959 1 242
3959 2 969
3959 3 2297
3960 1 969
3960 2 1123
3960 3 2297
3961 1 1123
3961 2 1875
3961 3 2297
3962 1 1875
3962 2 840
3962 3 2297
3963 1 2007
3963 2 1131
3963 3 2298
3964 1 1131
3964 2 2001
3964 3 2298
3965 1 2001
3965 2 2002
3965 3 2298
3966 1 2002
3966 2 1130
3966 3 2298
3967 1 2147
3967 2 434
3967 3 2299
3968 1 434
3968 2 1119
3968 3 2299
3969 1 1119
3969 2 1856
3969 3 2299
3970 1 1856
3970 2 1855
3970 3 2299
3971 1 1855
3971 2 1181
3971 3 2299
3972 1 1623
3972 2 1624
3972 3 2300
3973 1 1624
3973 2 1686
3973 3 2300
3974 1 1686
3974 2 1631
3974 3 2300
