%%MatrixMarket matrix coordinate  real general
2301 1 2301
1 1 3.58156486306834250e+14
2 1 3.58156486306704438e+14
3 1 3.58156486306620500e+14
4 1 3.58156486306561938e+14
5 1 3.58156486305895188e+14
6 1 3.58156486306862250e+14
7 1 3.58156486306600125e+14
8 1 3.58156486306923312e+14
9 1 3.58156486306511062e+14
10 1 3.58156486306577188e+14
11 1 3.58156486306651000e+14
12 1 3.58156486306663750e+14
13 1 3.58156486305818812e+14
14 1 3.58156486306813875e+14
15 1 3.58156486306763000e+14
16 1 3.58156486306220938e+14
17 1 3.58156486307032750e+14
18 1 3.58156486306518688e+14
19 1 3.58156486306673875e+14
20 1 3.58156486306600125e+14
21 1 3.58156486306676500e+14
22 1 3.58156486306411750e+14
23 1 3.58156486306500875e+14
24 1 3.58156486306432125e+14
25 1 3.58156486306592500e+14
26 1 3.58156486306198000e+14
27 1 3.58156486306521250e+14
28 1 3.58156486307279625e+14
29 1 3.58156486306569562e+14
30 1 3.58156486306378688e+14
31 1 3.58156486306617938e+14
32 1 3.58156486306633188e+14
33 1 3.58156486306500875e+14
34 1 3.58156486306671375e+14
35 1 3.58156486306589938e+14
36 1 3.58156486306630625e+14
37 1 3.58156486306882625e+14
38 1 3.58156486306607750e+14
39 1 3.58156486306783375e+14
40 1 3.58156486306317625e+14
41 1 3.58156486306460125e+14
42 1 3.58156486306653562e+14
43 1 3.58156486307424625e+14
44 1 3.58156486307305000e+14
45 1 3.58156486305490562e+14
46 1 3.58156486306205625e+14
47 1 3.58156486306745188e+14
48 1 3.58156486306956375e+14
49 1 3.58156486306707000e+14
50 1 3.58156486306694250e+14
51 1 3.58156486306831688e+14
52 1 3.58156486306722250e+14
53 1 3.58156486306427062e+14
54 1 3.58156486307073500e+14
55 1 3.58156486306620500e+14
56 1 3.58156486306536500e+14
57 1 3.58156486306561938e+14
58 1 3.58156486306658625e+14
59 1 3.58156486306663750e+14
60 1 3.58156486306567000e+14
61 1 3.58156486306605188e+14
62 1 3.58156486306600125e+14
63 1 3.58156486306948750e+14
64 1 3.58156486306526312e+14
65 1 3.58156486306701938e+14
66 1 3.58156486306541625e+14
67 1 3.58156486306729875e+14
68 1 3.58156486306859688e+14
69 1 3.58156486306803688e+14
70 1 3.58156486306727375e+14
71 1 3.58156486306600125e+14
72 1 3.58156486306452500e+14
73 1 3.58156486306261625e+14
74 1 3.58156486307004750e+14
75 1 3.58156486306676500e+14
76 1 3.58156486306528875e+14
77 1 3.58156486306373625e+14
78 1 3.58156486306735000e+14
79 1 3.58156486306411750e+14
80 1 3.58156486306544125e+14
81 1 3.58156486306612812e+14
82 1 3.58156486306391438e+14
83 1 3.58156486307040375e+14
84 1 3.58156486306159875e+14
85 1 3.58156486306373625e+14
86 1 3.58156486306406688e+14
87 1 3.58156486306737500e+14
88 1 3.58156486306523750e+14
89 1 3.58156486306765500e+14
90 1 3.58156486306612812e+14
91 1 3.58156486306567000e+14
92 1 3.58156486306600125e+14
93 1 3.58156486306564500e+14
94 1 3.58156486306467750e+14
95 1 3.58156486306796062e+14
96 1 3.58156486306584875e+14
97 1 3.58156486306355812e+14
98 1 3.58156486306806250e+14
99 1 3.58156486306727375e+14
100 1 3.58156486306778250e+14
101 1 3.58156486306666250e+14
102 1 3.58156486306383750e+14
103 1 3.58156486306523750e+14
104 1 3.58156486306462688e+14
105 1 3.58156486306793500e+14
106 1 3.58156486306681562e+14
107 1 3.58156486306671375e+14
108 1 3.58156486306304938e+14
109 1 3.58156486306554312e+14
110 1 3.58156486306717125e+14
111 1 3.58156486306485625e+14
112 1 3.58156486306778250e+14
113 1 3.58156486306600125e+14
114 1 3.58156486306518688e+14
115 1 3.58156486306633188e+14
116 1 3.58156486306633188e+14
117 1 3.58156486306605188e+14
118 1 3.58156486306691750e+14
119 1 3.58156486306948750e+14
120 1 3.58156486306811375e+14
121 1 3.58156486306429625e+14
122 1 3.58156486306651000e+14
123 1 3.58156486306582312e+14
124 1 3.58156486306841875e+14
125 1 3.58156486306735000e+14
126 1 3.58156486306643375e+14
127 1 3.58156486306676500e+14
128 1 3.58156486306282000e+14
129 1 3.58156486306452500e+14
130 1 3.58156486306722250e+14
131 1 3.58156486306704438e+14
132 1 3.58156486306533938e+14
133 1 3.58156486306673875e+14
134 1 3.58156486306727375e+14
135 1 3.58156486306399062e+14
136 1 3.58156486306493250e+14
137 1 3.58156486306437250e+14
138 1 3.58156486306610312e+14
139 1 3.58156486306605188e+14
140 1 3.58156486306722250e+14
141 1 3.58156486306617938e+14
142 1 3.58156486306569562e+14
143 1 3.58156486306521250e+14
144 1 3.58156486306735000e+14
145 1 3.58156486306332875e+14
146 1 3.58156486306712125e+14
147 1 3.58156486306460125e+14
148 1 3.58156486306671375e+14
149 1 3.58156486306495750e+14
150 1 3.58156486306811375e+14
151 1 3.58156486306757875e+14
152 1 3.58156486306671375e+14
153 1 3.58156486306317625e+14
154 1 3.58156486306673875e+14
155 1 3.58156486306569562e+14
156 1 3.58156486306628125e+14
157 1 3.58156486306528875e+14
158 1 3.58156486306684062e+14
159 1 3.58156486306676500e+14
160 1 3.58156486306623000e+14
161 1 3.58156486306964000e+14
162 1 3.58156486306068250e+14
163 1 3.58156486330244375e+14
164 1 3.58156486306149688e+14
165 1 3.58156486306516125e+14
166 1 3.58156486306607750e+14
167 1 3.58156486306592500e+14
168 1 3.58156486306757875e+14
169 1 3.58156486306635750e+14
170 1 3.58156486306513625e+14
171 1 3.58156486306849500e+14
172 1 3.58156486306885125e+14
173 1 3.58156486306424500e+14
174 1 3.58156486306694250e+14
175 1 3.58156488725174250e+14
176 1 3.58156490324328000e+14
177 1 3.58156486000456625e+14
178 1 3.58156486306531375e+14
179 1 3.58156486306732438e+14
180 1 3.58156486306536500e+14
181 1 3.58156486306818938e+14
182 1 3.58156486306768062e+14
183 1 3.58156486306546625e+14
184 1 3.58156486306368500e+14
185 1 3.58156486306668875e+14
186 1 3.58156486306628125e+14
187 1 3.58156486306745188e+14
188 1 3.58156486306480500e+14
189 1 3.58156486306569562e+14
190 1 3.58156486306656125e+14
191 1 3.58156486306638250e+14
192 1 3.58156486306625562e+14
193 1 3.58156486306442312e+14
194 1 3.58156486306640812e+14
195 1 3.58156486306661188e+14
196 1 3.58156486306719750e+14
197 1 3.58156486306577188e+14
198 1 3.58156486307002188e+14
199 1 3.58156486306302375e+14
200 1 3.58156486306964000e+14
201 1 3.58156486308259375e+14
202 1 3.58156486311603312e+14
203 1 3.58156486306348188e+14
204 1 3.58156486306541625e+14
205 1 3.58156486306170000e+14
206 1 3.58156486306615375e+14
207 1 3.58156486306388875e+14
208 1 3.58156486306427062e+14
209 1 3.58156486306615375e+14
210 1 3.58156486306821500e+14
211 1 3.58156489861841312e+14
212 1 3.58156483605503875e+14
213 1 3.58156486305027375e+14
214 1 3.58156486306371062e+14
215 1 3.58156486306671375e+14
216 1 3.58156486306783375e+14
217 1 3.58156486306159875e+14
218 1 3.58156486306910625e+14
219 1 3.58156486306801125e+14
220 1 3.58156486306862250e+14
221 1 3.58156486306701938e+14
222 1 3.58156486306572125e+14
223 1 3.58156486306198000e+14
224 1 3.58156486306841875e+14
225 1 3.58156486306577188e+14
226 1 3.58156486306763000e+14
227 1 3.58156486306908000e+14
228 1 3.58156486306752812e+14
229 1 3.58156486307009812e+14
230 1 3.58156486306508500e+14
231 1 3.58156486306528875e+14
232 1 3.58156486306643375e+14
233 1 3.58156486306480500e+14
234 1 3.58156486306979312e+14
235 1 3.58156486306635750e+14
236 1 3.58156486306806250e+14
237 1 3.58156486306770625e+14
238 1 3.58156486306630625e+14
239 1 3.58156486306684062e+14
240 1 3.58156486306447438e+14
241 1 3.58156486306506000e+14
242 1 3.58156486306549250e+14
243 1 3.58156486306556875e+14
244 1 3.58156486306811375e+14
245 1 3.58156486306679000e+14
246 1 3.58156486306475438e+14
247 1 3.58156486306719750e+14
248 1 3.58156486306383750e+14
249 1 3.58156486306284562e+14
250 1 3.58156486306923312e+14
251 1 3.58156486306801125e+14
252 1 3.58156486306483062e+14
253 1 3.58156486306640812e+14
254 1 3.58156486306747688e+14
255 1 3.58156486306704438e+14
256 1 3.58156486307246500e+14
257 1 3.58156486306645938e+14
258 1 3.58156486306498312e+14
259 1 3.58156486306506000e+14
260 1 3.58156486306620500e+14
261 1 3.58156486306582312e+14
262 1 3.58156486306506000e+14
263 1 3.58156486306719750e+14
264 1 3.58156486306638250e+14
265 1 3.58156486306806250e+14
266 1 3.58156486306559375e+14
267 1 3.58156486306849500e+14
268 1 3.58156486306533938e+14
269 1 3.58156486306874938e+14
270 1 3.58156486306276938e+14
271 1 3.58156486306938562e+14
272 1 3.58156486306788438e+14
273 1 3.58156486306663750e+14
274 1 3.58156486307076000e+14
275 1 3.58156486306633188e+14
276 1 3.58156486306732438e+14
277 1 3.58156486306488125e+14
278 1 3.58156486306813875e+14
279 1 3.58156486306605188e+14
280 1 3.58156486306768062e+14
281 1 3.58156486306539000e+14
282 1 3.58156486307053125e+14
283 1 3.58156486306467750e+14
284 1 3.58156486306556875e+14
285 1 3.58156486306717125e+14
286 1 3.58156486306735000e+14
287 1 3.58156486306450000e+14
288 1 3.58156486306668875e+14
289 1 3.58156486306770625e+14
290 1 3.58156486306808750e+14
291 1 3.58156486306643375e+14
292 1 3.58156486306681562e+14
293 1 3.58156486306628125e+14
294 1 3.58156486306569562e+14
295 1 3.58156486306582312e+14
296 1 3.58156486306801125e+14
297 1 3.58156486306154750e+14
298 1 3.58156486306994562e+14
299 1 3.58156486306518688e+14
300 1 3.58156486306752812e+14
301 1 3.58156486306485625e+14
302 1 3.58156486306905500e+14
303 1 3.58156486306699375e+14
304 1 3.58156486306561938e+14
305 1 3.58156486306335438e+14
306 1 3.58156486306671375e+14
307 1 3.58156486306709562e+14
308 1 3.58156486306989500e+14
309 1 3.58156486305729750e+14
310 1 3.58156486306427062e+14
311 1 3.58156486306623000e+14
312 1 3.58156486306666250e+14
313 1 3.58156486306666250e+14
314 1 3.58156486306656125e+14
315 1 3.58156486306587375e+14
316 1 3.58156486306416875e+14
317 1 3.58156486306549250e+14
318 1 3.58156486306567000e+14
319 1 3.58156486306666250e+14
320 1 3.58156486306742625e+14
321 1 3.58156486306615375e+14
322 1 3.58156486306442312e+14
323 1 3.58156486306915688e+14
324 1 3.58156486306623000e+14
325 1 3.58156486306610312e+14
326 1 3.58156486306533938e+14
327 1 3.58156486306651000e+14
328 1 3.58156486306679000e+14
329 1 3.58156486306439750e+14
330 1 3.58156486306600125e+14
331 1 3.58156486306516125e+14
332 1 3.58156486306526312e+14
333 1 3.58156486306617938e+14
334 1 3.58156486306651000e+14
335 1 3.58156486306785875e+14
336 1 3.58156486306633188e+14
337 1 3.58156486306638250e+14
338 1 3.58156486306536500e+14
339 1 3.58156486306605188e+14
340 1 3.58156486306651000e+14
341 1 3.58156486306490688e+14
342 1 3.58156486306495750e+14
343 1 3.58156486306452500e+14
344 1 3.58156486306617938e+14
345 1 3.58156486306579750e+14
346 1 3.58156486306478000e+14
347 1 3.58156486306623000e+14
348 1 3.58156486306607750e+14
349 1 3.58156486306701938e+14
350 1 3.58156486306523750e+14
351 1 3.58156486306796062e+14
352 1 3.58156486306643375e+14
353 1 3.58156486306783375e+14
354 1 3.58156486306299812e+14
355 1 3.58156486307381375e+14
356 1 3.58156486306653562e+14
357 1 3.58156486306976750e+14
358 1 3.58156486306582312e+14
359 1 3.58156486306620500e+14
360 1 3.58156486306600125e+14
361 1 3.58156486306625562e+14
362 1 3.58156486306388875e+14
363 1 3.58156486306701938e+14
364 1 3.58156486306880000e+14
365 1 3.58156486306589938e+14
366 1 3.58156486306091125e+14
367 1 3.58156486306902938e+14
368 1 3.58156486306203125e+14
369 1 3.58156486306460125e+14
370 1 3.58156486306689188e+14
371 1 3.58156486306699375e+14
372 1 3.58156486306653562e+14
373 1 3.58156486306653562e+14
374 1 3.58156486306444875e+14
375 1 3.58156486306625562e+14
376 1 3.58156486306472875e+14
377 1 3.58156486306770625e+14
378 1 3.58156486306556875e+14
379 1 3.58156486306523750e+14
380 1 3.58156486306528875e+14
381 1 3.58156486306511062e+14
382 1 3.58156486306882625e+14
383 1 3.58156486306472875e+14
384 1 3.58156486306610312e+14
385 1 3.58156486306597562e+14
386 1 3.58156486306500875e+14
387 1 3.58156486306516125e+14
388 1 3.58156486306958938e+14
389 1 3.58156486305836688e+14
390 1 3.58156486306371062e+14
391 1 3.58156486306353250e+14
392 1 3.58156486306724812e+14
393 1 3.58156486306584875e+14
394 1 3.58156486306526312e+14
395 1 3.58156486306707000e+14
396 1 3.58156486306363438e+14
397 1 3.58156486306925875e+14
398 1 3.58156486306419438e+14
399 1 3.58156486306623000e+14
400 1 3.58156490150990250e+14
401 1 3.58156485436412438e+14
402 1 3.58156489244609688e+14
403 1 3.58156486184826250e+14
404 1 3.58156488882774500e+14
405 1 3.58156486298474375e+14
406 1 3.58156486306699375e+14
407 1 3.58156486306223500e+14
408 1 3.58156486306976750e+14
409 1 3.58156486306539000e+14
410 1 3.58156486307009812e+14
411 1 3.58156486306640812e+14
412 1 3.58156486306465250e+14
413 1 3.58156486306676500e+14
414 1 3.58156486306554312e+14
415 1 3.58156486306821500e+14
416 1 3.58156486306320188e+14
417 1 3.58156486306478000e+14
418 1 3.58156486306673875e+14
419 1 3.58156486306617938e+14
420 1 3.58156486306350688e+14
421 1 3.58156486306737500e+14
422 1 3.58156486306109000e+14
423 1 3.58156486306668875e+14
424 1 3.58156486306500875e+14
425 1 3.58156486306661188e+14
426 1 3.58156486306633188e+14
427 1 3.58156486306709562e+14
428 1 3.58156486306516125e+14
429 1 3.58156486306587375e+14
430 1 3.58156486306900375e+14
431 1 3.58156486306757875e+14
432 1 3.58156486306684062e+14
433 1 3.58156486306640812e+14
434 1 3.58156486306775688e+14
435 1 3.58156486306526312e+14
436 1 3.58156486306567000e+14
437 1 3.58156486306579750e+14
438 1 3.58156486306707000e+14
439 1 3.58156486306605188e+14
440 1 3.58156486306109000e+14
441 1 3.58156486306546625e+14
442 1 3.58156486306213312e+14
443 1 3.58156486306577188e+14
444 1 3.58156486306399062e+14
445 1 3.58156486306516125e+14
446 1 3.58156486306752812e+14
447 1 3.58156486306696812e+14
448 1 3.58156486306765500e+14
449 1 3.58156486306574625e+14
450 1 3.58156486306528875e+14
451 1 3.58156486306546625e+14
452 1 3.58156486306796062e+14
453 1 3.58156486306500875e+14
454 1 3.58156486306640812e+14
455 1 3.58156486306841875e+14
456 1 3.58156486306488125e+14
457 1 3.58156486306572125e+14
458 1 3.58156486306584875e+14
459 1 3.58156486306729875e+14
460 1 3.58156486305770500e+14
461 1 3.58156486308450250e+14
462 1 3.58156486303678625e+14
463 1 3.58156486307053125e+14
464 1 3.58156486306442312e+14
465 1 3.58156486306892750e+14
466 1 3.58156486306587375e+14
467 1 3.58156486300970875e+14
468 1 3.58156486306373625e+14
469 1 3.58156486322187375e+14
470 1 3.58156486306261625e+14
471 1 3.58156486340034438e+14
472 1 3.58156486297906875e+14
473 1 3.58156486617393062e+14
474 1 3.58156486525885125e+14
475 1 3.58156486306075875e+14
476 1 3.58156494449624375e+14
477 1 3.58156435317147938e+14
478 1 3.58156472328997625e+14
479 1 3.58156489222986000e+14
480 1 3.58156484455933250e+14
481 1 3.58156482729613125e+14
482 1 3.58156505393284625e+14
483 1 3.58156484231571250e+14
484 1 3.58156486306579750e+14
485 1 3.58156486307592625e+14
486 1 3.58156486294351750e+14
487 1 3.58156486295456188e+14
488 1 3.58156486270524250e+14
489 1 3.58156487089781750e+14
490 1 3.58156486308109250e+14
491 1 3.58156488752936000e+14
492 1 3.58156485898629375e+14
493 1 3.58156487792996438e+14
494 1 3.58156479799151750e+14
495 1 3.58156486307875062e+14
496 1 3.58156486301581625e+14
497 1 3.58156486324536250e+14
498 1 3.58156486290351188e+14
499 1 3.58156486582185000e+14
500 1 3.58156506769107062e+14
501 1 3.58156485053653500e+14
502 1 3.58156487724690000e+14
503 1 3.58156483002571750e+14
504 1 3.58156486304536250e+14
505 1 3.58156486249180562e+14
506 1 3.58156486126274250e+14
507 1 3.58156483764254438e+14
508 1 3.58156498035065438e+14
509 1 3.58156483147559750e+14
510 1 3.58156498677025500e+14
511 1 3.58156473153454188e+14
512 1 3.58156478674811938e+14
513 1 3.58156486308521500e+14
514 1 3.58156486307974312e+14
515 1 3.58156486307979375e+14
516 1 3.58156486305391312e+14
517 1 3.58156486325849375e+14
518 1 3.58156486283032250e+14
519 1 3.58156486243177250e+14
520 1 3.58156486327597750e+14
521 1 3.58156486888557562e+14
522 1 3.58156486210908500e+14
523 1 3.58156485143280750e+14
524 1 3.58156486246913062e+14
525 1 3.58156482467248812e+14
526 1 3.58156488881217125e+14
527 1 3.58156496830018062e+14
528 1 3.58156484439470625e+14
529 1 3.58156454678852250e+14
530 1 3.58156515061420625e+14
531 1 3.58156487490573500e+14
532 1 3.58156485744238062e+14
533 1 3.58156485082532562e+14
534 1 3.58156488768594562e+14
535 1 3.58156490343854625e+14
536 1 3.58156486663994438e+14
537 1 3.58156480372548250e+14
538 1 3.58156488953289938e+14
539 1 3.58156487783005312e+14
540 1 3.58156486455441062e+14
541 1 3.58156486311516750e+14
542 1 3.58156486259148750e+14
543 1 3.58156486063070250e+14
544 1 3.58156487283379062e+14
545 1 3.58156482948437625e+14
546 1 3.58156490503294875e+14
547 1 3.58156485701983312e+14
548 1 3.58156487806387438e+14
549 1 3.58156486475642062e+14
550 1 3.58156486320566250e+14
551 1 3.58156487130540125e+14
552 1 3.58156486323693938e+14
553 1 3.58156485978731188e+14
554 1 3.58156485932470812e+14
555 1 3.58156486332972438e+14
556 1 3.58156486628661688e+14
557 1 3.58156485637705375e+14
558 1 3.58156486307964125e+14
559 1 3.58156486312700125e+14
560 1 3.58156486256031312e+14
561 1 3.58156486305365875e+14
562 1 3.58156486305218250e+14
563 1 3.58156486133952062e+14
564 1 3.58156485702128375e+14
565 1 3.58156486290565000e+14
566 1 3.58156486817973438e+14
567 1 3.58156486809873188e+14
568 1 3.58156486530985062e+14
569 1 3.58156486038896625e+14
570 1 3.58156486281166875e+14
571 1 3.58156486313455938e+14
572 1 3.58156486183314625e+14
573 1 3.58156486506114188e+14
574 1 3.58156486260741812e+14
575 1 3.58156486305029938e+14
576 1 3.58156486331697500e+14
577 1 3.58156486256540250e+14
578 1 3.58156486266640812e+14
579 1 3.58156486172990125e+14
580 1 3.58156486012656625e+14
581 1 3.58156486340772438e+14
582 1 3.58156486793021125e+14
583 1 3.58156486356876250e+14
584 1 3.58156486251862812e+14
585 1 3.58156486344230875e+14
586 1 3.58156486289063500e+14
587 1 3.58156486165597312e+14
588 1 3.58156486307959062e+14
589 1 3.58156486291633812e+14
590 1 3.58156486305373500e+14
591 1 3.58156486326887688e+14
592 1 3.58156486288849750e+14
593 1 3.58156486357609188e+14
594 1 3.58156486308228812e+14
595 1 3.58156486307078562e+14
596 1 3.58156486305307312e+14
597 1 3.58156486244057750e+14
598 1 3.58156486245327625e+14
599 1 3.58156486317708375e+14
600 1 3.58156486328781062e+14
601 1 3.58156486265210625e+14
602 1 3.58156486305544000e+14
603 1 3.58156486298031562e+14
604 1 3.58156486305971500e+14
605 1 3.58156486311613500e+14
606 1 3.58156486295135562e+14
607 1 3.58156486327686750e+14
608 1 3.58156486306895312e+14
609 1 3.58156486310066250e+14
610 1 3.58156486152323375e+14
611 1 3.58156486522210438e+14
612 1 3.58156485120359250e+14
613 1 3.58156486326371062e+14
614 1 3.58156486298275875e+14
615 1 3.58156485241456188e+14
616 1 3.58156487072033938e+14
617 1 3.58156485887940938e+14
618 1 3.58156483742307625e+14
619 1 3.58156487152815250e+14
620 1 3.58156483164930938e+14
621 1 3.58156485388747312e+14
622 1 3.58156489154860250e+14
623 1 3.58156486334484062e+14
624 1 3.58156485904370500e+14
625 1 3.58156485011737250e+14
626 1 3.58156488979613875e+14
627 1 3.58156486191277500e+14
628 1 3.58156487042903000e+14
629 1 3.58156486329002500e+14
630 1 3.58156484087209250e+14
631 1 3.58156489453784000e+14
632 1 3.58156486193567875e+14
633 1 3.58156486979691312e+14
634 1 3.58156487478851875e+14
635 1 3.58156486113196250e+14
636 1 3.58156487200508375e+14
637 1 3.58156486574504625e+14
638 1 3.58156486482426688e+14
639 1 3.58156486581429188e+14
640 1 3.58156486266994500e+14
641 1 3.58156486064296875e+14
642 1 3.58156486496324125e+14
643 1 3.58156486075186250e+14
644 1 3.58156486283452125e+14
645 1 3.58156485898710750e+14
646 1 3.58156486710807062e+14
647 1 3.58156486299520375e+14
648 1 3.58156486390170625e+14
649 1 3.58156486319113125e+14
650 1 3.58156486352216625e+14
651 1 3.58156486272244625e+14
652 1 3.58156486411700062e+14
653 1 3.58156486325205562e+14
654 1 3.58156486440434000e+14
655 1 3.58156486287277000e+14
656 1 3.58156486303520812e+14
657 1 3.58156486300568812e+14
658 1 3.58156486306185312e+14
659 1 3.58156486309931312e+14
660 1 3.58156486306928375e+14
661 1 3.58156486306312500e+14
662 1 3.58156486305600000e+14
663 1 3.58156486304984125e+14
664 1 3.58156486306200562e+14
665 1 3.58156486308083750e+14
666 1 3.58156486309656500e+14
667 1 3.58156486308109250e+14
668 1 3.58156486307607875e+14
669 1 3.58156486305874812e+14
670 1 3.58156486307063250e+14
671 1 3.58156486306763000e+14
672 1 3.58156486306488125e+14
673 1 3.58156486307773250e+14
674 1 3.58156486303414000e+14
675 1 3.58156486306747688e+14
676 1 3.58156486307134500e+14
677 1 3.58156486306579750e+14
678 1 3.58156486307984500e+14
679 1 3.58156486306770625e+14
680 1 3.58156486306653562e+14
681 1 3.58156486306849500e+14
682 1 3.58156486305045188e+14
683 1 3.58156486307287188e+14
684 1 3.58156486306226000e+14
685 1 3.58156486306541625e+14
686 1 3.58156486306902938e+14
687 1 3.58156486300813125e+14
688 1 3.58156486306811375e+14
689 1 3.58156486306343062e+14
690 1 3.58156486307447562e+14
691 1 3.58156486306521250e+14
692 1 3.58156486305284438e+14
693 1 3.58156486305363312e+14
694 1 3.58156486305943500e+14
695 1 3.58156486306109000e+14
696 1 3.58156486306427062e+14
697 1 3.58156486304393750e+14
698 1 3.58156486307714750e+14
699 1 3.58156486306816438e+14
700 1 3.58156486308063375e+14
701 1 3.58156486306294750e+14
702 1 3.58156486304841625e+14
703 1 3.58156486306964000e+14
704 1 3.58156486306747688e+14
705 1 3.58156486306714625e+14
706 1 3.58156486307101438e+14
707 1 3.58156486305859562e+14
708 1 3.58156486306513625e+14
709 1 3.58156486306584875e+14
710 1 3.58156486306465250e+14
711 1 3.58156486307615500e+14
712 1 3.58156486306582312e+14
713 1 3.58156486306668875e+14
714 1 3.58156486306880000e+14
715 1 3.58156486306378688e+14
716 1 3.58156486306864750e+14
717 1 3.58156486303976375e+14
718 1 3.58156486307361062e+14
719 1 3.58156486306989500e+14
720 1 3.58156486306852062e+14
721 1 3.58156486306539000e+14
722 1 3.58156486306831688e+14
723 1 3.58156486306684062e+14
724 1 3.58156486306841875e+14
725 1 3.58156486306241312e+14
726 1 3.58156486306673875e+14
727 1 3.58156486306394000e+14
728 1 3.58156486306625562e+14
729 1 3.58156486306617938e+14
730 1 3.58156486306719750e+14
731 1 3.58156486305714500e+14
732 1 3.58156486306559375e+14
733 1 3.58156486306943625e+14
734 1 3.58156486307231250e+14
735 1 3.58156486306763000e+14
736 1 3.58156486306539000e+14
737 1 3.58156486307424625e+14
738 1 3.58156486305549125e+14
739 1 3.58156486306668875e+14
740 1 3.58156486310618438e+14
741 1 3.58156486306877500e+14
742 1 3.58156486311524375e+14
743 1 3.58156486306040250e+14
744 1 3.58156486303421562e+14
745 1 3.58156486303714250e+14
746 1 3.58156486298843375e+14
747 1 3.58156486307661312e+14
748 1 3.58156486307638375e+14
749 1 3.58156486302917750e+14
750 1 3.58156486307595125e+14
751 1 3.58156486305699250e+14
752 1 3.58156486311183375e+14
753 1 3.58156486303671000e+14
754 1 3.58156486303429250e+14
755 1 3.58156486303991625e+14
756 1 3.58156486307903062e+14
757 1 3.58156486307058188e+14
758 1 3.58156486306022438e+14
759 1 3.58156486306485625e+14
760 1 3.58156486307600250e+14
761 1 3.58156486305859562e+14
762 1 3.58156486307429750e+14
763 1 3.58156486306419438e+14
764 1 3.58156486306327812e+14
765 1 3.58156486306673875e+14
766 1 3.58156486307557000e+14
767 1 3.58156486305913000e+14
768 1 3.58156486306394000e+14
769 1 3.58156486306671375e+14
770 1 3.58156486306694250e+14
771 1 3.58156486306373625e+14
772 1 3.58156486307597688e+14
773 1 3.58156486306834250e+14
774 1 3.58156486307035250e+14
775 1 3.58156486305577062e+14
776 1 3.58156486306070812e+14
777 1 3.58156486306503375e+14
778 1 3.58156486306198000e+14
779 1 3.58156486306984375e+14
780 1 3.58156486307032750e+14
781 1 3.58156486307065812e+14
782 1 3.58156486306925875e+14
783 1 3.58156486305806125e+14
784 1 3.58156486305974062e+14
785 1 3.58156486306078438e+14
786 1 3.58156486306732438e+14
787 1 3.58156486307635875e+14
788 1 3.58156486312264938e+14
789 1 3.58156486303999250e+14
790 1 3.58156486308704688e+14
791 1 3.58156486310753312e+14
792 1 3.58156486309916062e+14
793 1 3.58156486365704375e+14
794 1 3.58156486288508750e+14
795 1 3.58156486276810062e+14
796 1 3.58156486309977125e+14
797 1 3.58156486255720875e+14
798 1 3.58156486377011188e+14
799 1 3.58156486329394375e+14
800 1 3.58156486292239500e+14
801 1 3.58156486307867438e+14
802 1 3.58156486303561562e+14
803 1 3.58156486328605500e+14
804 1 3.58156486297489500e+14
805 1 3.58156486313921688e+14
806 1 3.58156486303607375e+14
807 1 3.58156486307615500e+14
808 1 3.58156486306755375e+14
809 1 3.58156486311114688e+14
810 1 3.58156486305780625e+14
811 1 3.58156486289226375e+14
812 1 3.58156486304437000e+14
813 1 3.58156486328348438e+14
814 1 3.58156486304518438e+14
815 1 3.58156486306457625e+14
816 1 3.58156486325113938e+14
817 1 3.58156486313191250e+14
818 1 3.58156486298018875e+14
819 1 3.58156486319075000e+14
820 1 3.58156486304625312e+14
821 1 3.58156486307796188e+14
822 1 3.58156486301747125e+14
823 1 3.58156486321217750e+14
824 1 3.58156486317135812e+14
825 1 3.58156486289274750e+14
826 1 3.58156486306605188e+14
827 1 3.58156486306503375e+14
828 1 3.58156486306307438e+14
829 1 3.58156486306859688e+14
830 1 3.58156486307098875e+14
831 1 3.58156486306233688e+14
832 1 3.58156486306462688e+14
833 1 3.58156486306302375e+14
834 1 3.58156486306396562e+14
835 1 3.58156486306671375e+14
836 1 3.58156486306620500e+14
837 1 3.58156486306785875e+14
838 1 3.58156486306220938e+14
839 1 3.58156486306332875e+14
840 1 3.58156486307037812e+14
841 1 3.58156486306913125e+14
842 1 3.58156486306658625e+14
843 1 3.58156486306518688e+14
844 1 3.58156486307198125e+14
845 1 3.58156486307149812e+14
846 1 3.58156486306554312e+14
847 1 3.58156486306668875e+14
848 1 3.58156486306554312e+14
849 1 3.58156486307101438e+14
850 1 3.58156486306223500e+14
851 1 3.58156486307241438e+14
852 1 3.58156486305974062e+14
853 1 3.58156486307009812e+14
854 1 3.58156486306714625e+14
855 1 3.58156486306279500e+14
856 1 3.58156486307633312e+14
857 1 3.58156486306345625e+14
858 1 3.58156486306910625e+14
859 1 3.58156486306630625e+14
860 1 3.58156486306915688e+14
861 1 3.58156486306198000e+14
862 1 3.58156486307042938e+14
863 1 3.58156486306887688e+14
864 1 3.58156486305938438e+14
865 1 3.58156486306546625e+14
866 1 3.58156486306722250e+14
867 1 3.58156486306511062e+14
868 1 3.58156486306605188e+14
869 1 3.58156486306699375e+14
870 1 3.58156486306330375e+14
871 1 3.58156486306424500e+14
872 1 3.58156486306913125e+14
873 1 3.58156486306625562e+14
874 1 3.58156486306872375e+14
875 1 3.58156486306282000e+14
876 1 3.58156486307042938e+14
877 1 3.58156486306704438e+14
878 1 3.58156486306500875e+14
879 1 3.58156486306605188e+14
880 1 3.58156486306821500e+14
881 1 3.58156486306874938e+14
882 1 3.58156486307022562e+14
883 1 3.58156486306605188e+14
884 1 3.58156486307030188e+14
885 1 3.58156486305750125e+14
886 1 3.58156486306602625e+14
887 1 3.58156486306567000e+14
888 1 3.58156486306284562e+14
889 1 3.58156486306971625e+14
890 1 3.58156486306396562e+14
891 1 3.58156486306612812e+14
892 1 3.58156486306243812e+14
893 1 3.58156486307210875e+14
894 1 3.58156486307493375e+14
895 1 3.58156486306574625e+14
896 1 3.58156486306707000e+14
897 1 3.58156486306775688e+14
898 1 3.58156486306668875e+14
899 1 3.58156486307383938e+14
900 1 3.58156486306223500e+14
901 1 3.58156486306661188e+14
902 1 3.58156486307027625e+14
903 1 3.58156486306689188e+14
904 1 3.58156486306513625e+14
905 1 3.58156486306582312e+14
906 1 3.58156486306513625e+14
907 1 3.58156486306378688e+14
908 1 3.58156486306689188e+14
909 1 3.58156486306946250e+14
910 1 3.58156486306737500e+14
911 1 3.58156486307193062e+14
912 1 3.58156486306806250e+14
913 1 3.58156486306569562e+14
914 1 3.58156486306686625e+14
915 1 3.58156486306663750e+14
916 1 3.58156486306630625e+14
917 1 3.58156486306567000e+14
918 1 3.58156486306643375e+14
919 1 3.58156486306266750e+14
920 1 3.58156486306612812e+14
921 1 3.58156486306849500e+14
922 1 3.58156486306490688e+14
923 1 3.58156486306366000e+14
924 1 3.58156486306635750e+14
925 1 3.58156486306892750e+14
926 1 3.58156486306152250e+14
927 1 3.58156486306205625e+14
928 1 3.58156486306434688e+14
929 1 3.58156486306157312e+14
930 1 3.58156486307065812e+14
931 1 3.58156486306424500e+14
932 1 3.58156486306620500e+14
933 1 3.58156486306427062e+14
934 1 3.58156486307020000e+14
935 1 3.58156486306478000e+14
936 1 3.58156486306890250e+14
937 1 3.58156486307060750e+14
938 1 3.58156486306327812e+14
939 1 3.58156486306582312e+14
940 1 3.58156486306920750e+14
941 1 3.58156486306383750e+14
942 1 3.58156486306869875e+14
943 1 3.58156486306465250e+14
944 1 3.58156486306503375e+14
945 1 3.58156486306854625e+14
946 1 3.58156486306908000e+14
947 1 3.58156486306635750e+14
948 1 3.58156486306592500e+14
949 1 3.58156486306620500e+14
950 1 3.58156486306607750e+14
951 1 3.58156486306890250e+14
952 1 3.58156486306651000e+14
953 1 3.58156486306651000e+14
954 1 3.58156486306475438e+14
955 1 3.58156486306582312e+14
956 1 3.58156486306584875e+14
957 1 3.58156486306495750e+14
958 1 3.58156486306701938e+14
959 1 3.58156486306653562e+14
960 1 3.58156486306671375e+14
961 1 3.58156486306765500e+14
962 1 3.58156486306653562e+14
963 1 3.58156486306587375e+14
964 1 3.58156486306785875e+14
965 1 3.58156486306617938e+14
966 1 3.58156486306714625e+14
967 1 3.58156486306233688e+14
968 1 3.58156486306567000e+14
969 1 3.58156486306668875e+14
970 1 3.58156486306864750e+14
971 1 3.58156486306796062e+14
972 1 3.58156486306770625e+14
973 1 3.58156486306714625e+14
974 1 3.58156486306633188e+14
975 1 3.58156486306676500e+14
976 1 3.58156486306432125e+14
977 1 3.58156486306569562e+14
978 1 3.58156486306750250e+14
979 1 3.58156486306495750e+14
980 1 3.58156486307055625e+14
981 1 3.58156486306551750e+14
982 1 3.58156486306556875e+14
983 1 3.58156486306144562e+14
984 1 3.58156486306668875e+14
985 1 3.58156486306701938e+14
986 1 3.58156486306556875e+14
987 1 3.58156486306928375e+14
988 1 3.58156486306340500e+14
989 1 3.58156486306673875e+14
990 1 3.58156486306434688e+14
991 1 3.58156486306434688e+14
992 1 3.58156486306663750e+14
993 1 3.58156486306694250e+14
994 1 3.58156486306533938e+14
995 1 3.58156486307625688e+14
996 1 3.58156486306768062e+14
997 1 3.58156486306742625e+14
998 1 3.58156486306536500e+14
999 1 3.58156486306409250e+14
1000 1 3.58156486306391438e+14
1001 1 3.58156486306203125e+14
1002 1 3.58156486306572125e+14
1003 1 3.58156486306368500e+14
1004 1 3.58156486306047875e+14
1005 1 3.58156486307152375e+14
1006 1 3.58156486306628125e+14
1007 1 3.58156486306343062e+14
1008 1 3.58156486306645938e+14
1009 1 3.58156486306592500e+14
1010 1 3.58156486306653562e+14
1011 1 3.58156486306704438e+14
1012 1 3.58156486306719750e+14
1013 1 3.58156486307221062e+14
1014 1 3.58156486307355938e+14
1015 1 3.58156486306844438e+14
1016 1 3.58156486306528875e+14
1017 1 3.58156486306818938e+14
1018 1 3.58156486306623000e+14
1019 1 3.58156486306498312e+14
1020 1 3.58156486306271812e+14
1021 1 3.58156486306617938e+14
1022 1 3.58156486306852062e+14
1023 1 3.58156486306098750e+14
1024 1 3.58156486306966562e+14
1025 1 3.58156486306953875e+14
1026 1 3.58156486306320188e+14
1027 1 3.58156486306696812e+14
1028 1 3.58156486306645938e+14
1029 1 3.58156486306663750e+14
1030 1 3.58156486306691750e+14
1031 1 3.58156486306559375e+14
1032 1 3.58156486306729875e+14
1033 1 3.58156486306465250e+14
1034 1 3.58156486306310000e+14
1035 1 3.58156486306376188e+14
1036 1 3.58156486306958938e+14
1037 1 3.58156486306373625e+14
1038 1 3.58156486306521250e+14
1039 1 3.58156486306630625e+14
1040 1 3.58156486306561938e+14
1041 1 3.58156486306416875e+14
1042 1 3.58156486306467750e+14
1043 1 3.58156486306663750e+14
1044 1 3.58156486306633188e+14
1045 1 3.58156486306559375e+14
1046 1 3.58156486306643375e+14
1047 1 3.58156486306821500e+14
1048 1 3.58156486306266750e+14
1049 1 3.58156486306638250e+14
1050 1 3.58156486306757875e+14
1051 1 3.58156486306528875e+14
1052 1 3.58156486306478000e+14
1053 1 3.58156486306885125e+14
1054 1 3.58156486306742625e+14
1055 1 3.58156486306556875e+14
1056 1 3.58156486306363438e+14
1057 1 3.58156486306701938e+14
1058 1 3.58156486307121812e+14
1059 1 3.58156486306658625e+14
1060 1 3.58156486306551750e+14
1061 1 3.58156486306864750e+14
1062 1 3.58156486306498312e+14
1063 1 3.58156486306704438e+14
1064 1 3.58156486306073312e+14
1065 1 3.58156486306694250e+14
1066 1 3.58156486306203125e+14
1067 1 3.58156486306447438e+14
1068 1 3.58156486306561938e+14
1069 1 3.58156486306623000e+14
1070 1 3.58156486306478000e+14
1071 1 3.58156486306803688e+14
1072 1 3.58156486306607750e+14
1073 1 3.58156486307078562e+14
1074 1 3.58156486306343062e+14
1075 1 3.58156486306574625e+14
1076 1 3.58156486306773125e+14
1077 1 3.58156486306478000e+14
1078 1 3.58156486306554312e+14
1079 1 3.58156486306658625e+14
1080 1 3.58156486306409250e+14
1081 1 3.58156486306513625e+14
1082 1 3.58156486306465250e+14
1083 1 3.58156486306597562e+14
1084 1 3.58156486306523750e+14
1085 1 3.58156486306709562e+14
1086 1 3.58156486306760438e+14
1087 1 3.58156486306467750e+14
1088 1 3.58156486306180250e+14
1089 1 3.58156486306701938e+14
1090 1 3.58156486306307438e+14
1091 1 3.58156486306791000e+14
1092 1 3.58156486306999625e+14
1093 1 3.58156486306895312e+14
1094 1 3.58156486306671375e+14
1095 1 3.58156486306653562e+14
1096 1 3.58156486306531375e+14
1097 1 3.58156486306668875e+14
1098 1 3.58156486306666250e+14
1099 1 3.58156486306735000e+14
1100 1 3.58156486306406688e+14
1101 1 3.58156486306299812e+14
1102 1 3.58156486306332875e+14
1103 1 3.58156486307182875e+14
1104 1 3.58156486306493250e+14
1105 1 3.58156486306506000e+14
1106 1 3.58156486306831688e+14
1107 1 3.58156486306709562e+14
1108 1 3.58156486306485625e+14
1109 1 3.58156486306620500e+14
1110 1 3.58156486306661188e+14
1111 1 3.58156486306574625e+14
1112 1 3.58156486306394000e+14
1113 1 3.58156486306419438e+14
1114 1 3.58156486306643375e+14
1115 1 3.58156486306681562e+14
1116 1 3.58156486306633188e+14
1117 1 3.58156486306722250e+14
1118 1 3.58156486306371062e+14
1119 1 3.58156486306582312e+14
1120 1 3.58156486306643375e+14
1121 1 3.58156486306307438e+14
1122 1 3.58156486306503375e+14
1123 1 3.58156486306554312e+14
1124 1 3.58156486306816438e+14
1125 1 3.58156486306651000e+14
1126 1 3.58156486307017500e+14
1127 1 3.58156486306643375e+14
1128 1 3.58156486306373625e+14
1129 1 3.58156486306103875e+14
1130 1 3.58156486306859688e+14
1131 1 3.58156486306386375e+14
1132 1 3.58156486306836750e+14
1133 1 3.58156486306327812e+14
1134 1 3.58156486306452500e+14
1135 1 3.58156486306582312e+14
1136 1 3.58156486306478000e+14
1137 1 3.58156486306332875e+14
1138 1 3.58156486306755375e+14
1139 1 3.58156486306093688e+14
1140 1 3.58156486306513625e+14
1141 1 3.58156486306857125e+14
1142 1 3.58156486306564500e+14
1143 1 3.58156486306605188e+14
1144 1 3.58156486306549250e+14
1145 1 3.58156486307048000e+14
1146 1 3.58156486306536500e+14
1147 1 3.58156486306651000e+14
1148 1 3.58156486306360875e+14
1149 1 3.58156486306572125e+14
1150 1 3.58156486306569562e+14
1151 1 3.58156486306623000e+14
1152 1 3.58156486306159875e+14
1153 1 3.58156486306493250e+14
1154 1 3.58156486306340500e+14
1155 1 3.58156486306887688e+14
1156 1 3.58156486306615375e+14
1157 1 3.58156486306831688e+14
1158 1 3.58156486306539000e+14
1159 1 3.58156486306378688e+14
1160 1 3.58156486306661188e+14
1161 1 3.58156486306727375e+14
1162 1 3.58156486306511062e+14
1163 1 3.58156486306867312e+14
1164 1 3.58156486306442312e+14
1165 1 3.58156486306846938e+14
1166 1 3.58156486306315125e+14
1167 1 3.58156486306633188e+14
1168 1 3.58156486306475438e+14
1169 1 3.58156486307200688e+14
1170 1 3.58156486306409250e+14
1171 1 3.58156486306480500e+14
1172 1 3.58156486306572125e+14
1173 1 3.58156486306396562e+14
1174 1 3.58156486306210750e+14
1175 1 3.58156486306582312e+14
1176 1 3.58156486306801125e+14
1177 1 3.58156486306437250e+14
1178 1 3.58156486306264188e+14
1179 1 3.58156486306737500e+14
1180 1 3.58156486306796062e+14
1181 1 3.58156486306658625e+14
1182 1 3.58156486306704438e+14
1183 1 3.58156486306299812e+14
1184 1 3.58156486306829125e+14
1185 1 3.58156486306625562e+14
1186 1 3.58156486306640812e+14
1187 1 3.58156486306528875e+14
1188 1 3.58156486306406688e+14
1189 1 3.58156486306699375e+14
1190 1 3.58156486306513625e+14
1191 1 3.58156486306846938e+14
1192 1 3.58156486306396562e+14
1193 1 3.58156486306704438e+14
1194 1 3.58156486306475438e+14
1195 1 3.58156486306709562e+14
1196 1 3.58156486306577188e+14
1197 1 3.58156486306857125e+14
1198 1 3.58156486306600125e+14
1199 1 3.58156486306582312e+14
1200 1 3.58156486306661188e+14
1201 1 3.58156486306460125e+14
1202 1 3.58156486306536500e+14
1203 1 3.58156486306485625e+14
1204 1 3.58156486306597562e+14
1205 1 3.58156486306521250e+14
1206 1 3.58156486306447438e+14
1207 1 3.58156486306701938e+14
1208 1 3.58156486306699375e+14
1209 1 3.58156486306740125e+14
1210 1 3.58156486306717125e+14
1211 1 3.58156486306584875e+14
1212 1 3.58156486306951312e+14
1213 1 3.58156486306638250e+14
1214 1 3.58156486306167500e+14
1215 1 3.58156486306569562e+14
1216 1 3.58156486306724812e+14
1217 1 3.58156486306478000e+14
1218 1 3.58156486306602625e+14
1219 1 3.58156486306752812e+14
1220 1 3.58156486306572125e+14
1221 1 3.58156486306691750e+14
1222 1 3.58156486306813875e+14
1223 1 3.58156486306661188e+14
1224 1 3.58156486306681562e+14
1225 1 3.58156486306432125e+14
1226 1 3.58156486307104000e+14
1227 1 3.58156486306299812e+14
1228 1 3.58156486306310000e+14
1229 1 3.58156486306989500e+14
1230 1 3.58156486306536500e+14
1231 1 3.58156486306373625e+14
1232 1 3.58156486306668875e+14
1233 1 3.58156486306366000e+14
1234 1 3.58156486307060750e+14
1235 1 3.58156486306450000e+14
1236 1 3.58156486306735000e+14
1237 1 3.58156486307200688e+14
1238 1 3.58156486306493250e+14
1239 1 3.58156486306549250e+14
1240 1 3.58156486306668875e+14
1241 1 3.58156486306625562e+14
1242 1 3.58156486306895312e+14
1243 1 3.58156486306287125e+14
1244 1 3.58156486306623000e+14
1245 1 3.58156486306208188e+14
1246 1 3.58156486306340500e+14
1247 1 3.58156486306521250e+14
1248 1 3.58156486306536500e+14
1249 1 3.58156486306930938e+14
1250 1 3.58156486306633188e+14
1251 1 3.58156486306625562e+14
1252 1 3.58156486306559375e+14
1253 1 3.58156486306589938e+14
1254 1 3.58156486306406688e+14
1255 1 3.58156486306584875e+14
1256 1 3.58156486306605188e+14
1257 1 3.58156486306075875e+14
1258 1 3.58156486307058188e+14
1259 1 3.58156486306485625e+14
1260 1 3.58156486306818938e+14
1261 1 3.58156486306561938e+14
1262 1 3.58156486306584875e+14
1263 1 3.58156486306607750e+14
1264 1 3.58156486306808750e+14
1265 1 3.58156486306378688e+14
1266 1 3.58156486306276938e+14
1267 1 3.58156486306564500e+14
1268 1 3.58156486306284562e+14
1269 1 3.58156486307004750e+14
1270 1 3.58156486306681562e+14
1271 1 3.58156486306719750e+14
1272 1 3.58156486306358375e+14
1273 1 3.58156486306450000e+14
1274 1 3.58156486306620500e+14
1275 1 3.58156486306427062e+14
1276 1 3.58156486306638250e+14
1277 1 3.58156486306813875e+14
1278 1 3.58156486306343062e+14
1279 1 3.58156486306574625e+14
1280 1 3.58156486306658625e+14
1281 1 3.58156486306401625e+14
1282 1 3.58156486306666250e+14
1283 1 3.58156486306462688e+14
1284 1 3.58156486306671375e+14
1285 1 3.58156486306821500e+14
1286 1 3.58156486306531375e+14
1287 1 3.58156486306859688e+14
1288 1 3.58156486306979312e+14
1289 1 3.58156486306729875e+14
1290 1 3.58156486306330375e+14
1291 1 3.58156486306521250e+14
1292 1 3.58156486306572125e+14
1293 1 3.58156486306592500e+14
1294 1 3.58156486306554312e+14
1295 1 3.58156486306437250e+14
1296 1 3.58156486306607750e+14
1297 1 3.58156486306554312e+14
1298 1 3.58156486306910625e+14
1299 1 3.58156486306475438e+14
1300 1 3.58156486306824062e+14
1301 1 3.58156486306556875e+14
1302 1 3.58156486306602625e+14
1303 1 3.58156486306299812e+14
1304 1 3.58156486306640812e+14
1305 1 3.58156486306752812e+14
1306 1 3.58156486306167500e+14
1307 1 3.58156486306651000e+14
1308 1 3.58156486306617938e+14
1309 1 3.58156486306783375e+14
1310 1 3.58156486306450000e+14
1311 1 3.58156486306699375e+14
1312 1 3.58156486306480500e+14
1313 1 3.58156486306416875e+14
1314 1 3.58156486306737500e+14
1315 1 3.58156486306752812e+14
1316 1 3.58156486306561938e+14
1317 1 3.58156486306785875e+14
1318 1 3.58156486307371250e+14
1319 1 3.58156486306671375e+14
1320 1 3.58156486306750250e+14
1321 1 3.58156486306518688e+14
1322 1 3.58156486306317625e+14
1323 1 3.58156486307065812e+14
1324 1 3.58156486306610312e+14
1325 1 3.58156486306714625e+14
1326 1 3.58156486306536500e+14
1327 1 3.58156486306770625e+14
1328 1 3.58156486306691750e+14
1329 1 3.58156486306620500e+14
1330 1 3.58156486306617938e+14
1331 1 3.58156486306679000e+14
1332 1 3.58156486306645938e+14
1333 1 3.58156486306653562e+14
1334 1 3.58156486306727375e+14
1335 1 3.58156486307070875e+14
1336 1 3.58156486306470312e+14
1337 1 3.58156486306526312e+14
1338 1 3.58156486306536500e+14
1339 1 3.58156486306701938e+14
1340 1 3.58156486306971625e+14
1341 1 3.58156486306513625e+14
1342 1 3.58156486306592500e+14
1343 1 3.58156486306841875e+14
1344 1 3.58156486306424500e+14
1345 1 3.58156486306427062e+14
1346 1 3.58156486306788438e+14
1347 1 3.58156486306722250e+14
1348 1 3.58156486306704438e+14
1349 1 3.58156486306401625e+14
1350 1 3.58156486306689188e+14
1351 1 3.58156486306592500e+14
1352 1 3.58156486306355812e+14
1353 1 3.58156486306633188e+14
1354 1 3.58156486306411750e+14
1355 1 3.58156486306887688e+14
1356 1 3.58156486306788438e+14
1357 1 3.58156486306633188e+14
1358 1 3.58156486306885125e+14
1359 1 3.58156486306462688e+14
1360 1 3.58156486306595000e+14
1361 1 3.58156486307055625e+14
1362 1 3.58156486306691750e+14
1363 1 3.58156486306460125e+14
1364 1 3.58156486306803688e+14
1365 1 3.58156486306666250e+14
1366 1 3.58156486306587375e+14
1367 1 3.58156486306592500e+14
1368 1 3.58156486306948750e+14
1369 1 3.58156486306806250e+14
1370 1 3.58156486306737500e+14
1371 1 3.58156486306648500e+14
1372 1 3.58156486306918250e+14
1373 1 3.58156486306752812e+14
1374 1 3.58156486306561938e+14
1375 1 3.58156486306661188e+14
1376 1 3.58156486306681562e+14
1377 1 3.58156486306572125e+14
1378 1 3.58156486306707000e+14
1379 1 3.58156486306630625e+14
1380 1 3.58156486306462688e+14
1381 1 3.58156486306831688e+14
1382 1 3.58156486306541625e+14
1383 1 3.58156486307014875e+14
1384 1 3.58156486306661188e+14
1385 1 3.58156486306640812e+14
1386 1 3.58156486306462688e+14
1387 1 3.58156486305986812e+14
1388 1 3.58156486306287125e+14
1389 1 3.58156486306849500e+14
1390 1 3.58156486306353250e+14
1391 1 3.58156486306605188e+14
1392 1 3.58156486306714625e+14
1393 1 3.58156486306577188e+14
1394 1 3.58156486306661188e+14
1395 1 3.58156486306696812e+14
1396 1 3.58156486306269250e+14
1397 1 3.58156486306584875e+14
1398 1 3.58156486306656125e+14
1399 1 3.58156486306544125e+14
1400 1 3.58156486306411750e+14
1401 1 3.58156486306663750e+14
1402 1 3.58156486306508500e+14
1403 1 3.58156486306175125e+14
1404 1 3.58156486306579750e+14
1405 1 3.58156486306760438e+14
1406 1 3.58156486306531375e+14
1407 1 3.58156486306411750e+14
1408 1 3.58156486306770625e+14
1409 1 3.58156486306768062e+14
1410 1 3.58156486306223500e+14
1411 1 3.58156486306355812e+14
1412 1 3.58156486306602625e+14
1413 1 3.58156486306480500e+14
1414 1 3.58156486306432125e+14
1415 1 3.58156486306737500e+14
1416 1 3.58156486306404125e+14
1417 1 3.58156486306478000e+14
1418 1 3.58156486306416875e+14
1419 1 3.58156486306729875e+14
1420 1 3.58156486306465250e+14
1421 1 3.58156486306567000e+14
1422 1 3.58156486306330375e+14
1423 1 3.58156486306559375e+14
1424 1 3.58156486306414375e+14
1425 1 3.58156486306839312e+14
1426 1 3.58156486306516125e+14
1427 1 3.58156486306643375e+14
1428 1 3.58156486306511062e+14
1429 1 3.58156486306310000e+14
1430 1 3.58156486306918250e+14
1431 1 3.58156486306416875e+14
1432 1 3.58156486306592500e+14
1433 1 3.58156486306612812e+14
1434 1 3.58156486306791000e+14
1435 1 3.58156486306539000e+14
1436 1 3.58156486306783375e+14
1437 1 3.58156486306625562e+14
1438 1 3.58156486306625562e+14
1439 1 3.58156486306567000e+14
1440 1 3.58156486306371062e+14
1441 1 3.58156486306880000e+14
1442 1 3.58156486306455062e+14
1443 1 3.58156486306274375e+14
1444 1 3.58156486306745188e+14
1445 1 3.58156486306617938e+14
1446 1 3.58156486306923312e+14
1447 1 3.58156486306457625e+14
1448 1 3.58156486306467750e+14
1449 1 3.58156486306561938e+14
1450 1 3.58156486306707000e+14
1451 1 3.58156486306648500e+14
1452 1 3.58156486306679000e+14
1453 1 3.58156486306679000e+14
1454 1 3.58156486306745188e+14
1455 1 3.58156486306645938e+14
1456 1 3.58156486306475438e+14
1457 1 3.58156486306979312e+14
1458 1 3.58156486306630625e+14
1459 1 3.58156486306732438e+14
1460 1 3.58156486306854625e+14
1461 1 3.58156486306701938e+14
1462 1 3.58156486306414375e+14
1463 1 3.58156486306551750e+14
1464 1 3.58156486306617938e+14
1465 1 3.58156486306498312e+14
1466 1 3.58156486306796062e+14
1467 1 3.58156486306953875e+14
1468 1 3.58156486306261625e+14
1469 1 3.58156486306355812e+14
1470 1 3.58156486306602625e+14
1471 1 3.58156486306577188e+14
1472 1 3.58156486306427062e+14
1473 1 3.58156486306236188e+14
1474 1 3.58156486306801125e+14
1475 1 3.58156486306526312e+14
1476 1 3.58156486306256562e+14
1477 1 3.58156486306503375e+14
1478 1 3.58156486306602625e+14
1479 1 3.58156486306778250e+14
1480 1 3.58156486306533938e+14
1481 1 3.58156486307119250e+14
1482 1 3.58156486306506000e+14
1483 1 3.58156486306885125e+14
1484 1 3.58156486306427062e+14
1485 1 3.58156486306518688e+14
1486 1 3.58156486306757875e+14
1487 1 3.58156486306648500e+14
1488 1 3.58156486306422000e+14
1489 1 3.58156486306663750e+14
1490 1 3.58156486306885125e+14
1491 1 3.58156486306406688e+14
1492 1 3.58156486306676500e+14
1493 1 3.58156486306694250e+14
1494 1 3.58156486306164938e+14
1495 1 3.58156486307014875e+14
1496 1 3.58156486306455062e+14
1497 1 3.58156486306783375e+14
1498 1 3.58156486306623000e+14
1499 1 3.58156486306508500e+14
1500 1 3.58156486306707000e+14
1501 1 3.58156486306427062e+14
1502 1 3.58156486306699375e+14
1503 1 3.58156486306834250e+14
1504 1 3.58156486306589938e+14
1505 1 3.58156486306569562e+14
1506 1 3.58156486306773125e+14
1507 1 3.58156486306617938e+14
1508 1 3.58156486306686625e+14
1509 1 3.58156486306651000e+14
1510 1 3.58156486306488125e+14
1511 1 3.58156486306643375e+14
1512 1 3.58156486306444875e+14
1513 1 3.58156486306704438e+14
1514 1 3.58156486306549250e+14
1515 1 3.58156486306742625e+14
1516 1 3.58156486306279500e+14
1517 1 3.58156486306401625e+14
1518 1 3.58156486306508500e+14
1519 1 3.58156486306722250e+14
1520 1 3.58156486306668875e+14
1521 1 3.58156486306533938e+14
1522 1 3.58156486306414375e+14
1523 1 3.58156486306625562e+14
1524 1 3.58156486306266750e+14
1525 1 3.58156486306905500e+14
1526 1 3.58156486306549250e+14
1527 1 3.58156486306658625e+14
1528 1 3.58156486306770625e+14
1529 1 3.58156486306455062e+14
1530 1 3.58156486306572125e+14
1531 1 3.58156486306447438e+14
1532 1 3.58156486306712125e+14
1533 1 3.58156486306612812e+14
1534 1 3.58156486306628125e+14
1535 1 3.58156486306551750e+14
1536 1 3.58156486306475438e+14
1537 1 3.58156486306874938e+14
1538 1 3.58156486306617938e+14
1539 1 3.58156486306345625e+14
1540 1 3.58156486306544125e+14
1541 1 3.58156486306696812e+14
1542 1 3.58156486306696812e+14
1543 1 3.58156486306824062e+14
1544 1 3.58156486306796062e+14
1545 1 3.58156486306676500e+14
1546 1 3.58156486306584875e+14
1547 1 3.58156486306523750e+14
1548 1 3.58156486306595000e+14
1549 1 3.58156486306582312e+14
1550 1 3.58156486306416875e+14
1551 1 3.58156486306539000e+14
1552 1 3.58156486307022562e+14
1553 1 3.58156486306569562e+14
1554 1 3.58156486306633188e+14
1555 1 3.58156486306478000e+14
1556 1 3.58156486306666250e+14
1557 1 3.58156486306539000e+14
1558 1 3.58156486306406688e+14
1559 1 3.58156486306630625e+14
1560 1 3.58156486306765500e+14
1561 1 3.58156486306577188e+14
1562 1 3.58156486306600125e+14
1563 1 3.58156486306668875e+14
1564 1 3.58156486306831688e+14
1565 1 3.58156486306518688e+14
1566 1 3.58156486306872375e+14
1567 1 3.58156486306424500e+14
1568 1 3.58156486306684062e+14
1569 1 3.58156486306658625e+14
1570 1 3.58156486306549250e+14
1571 1 3.58156486306780812e+14
1572 1 3.58156486306455062e+14
1573 1 3.58156486306852062e+14
1574 1 3.58156486306294750e+14
1575 1 3.58156486306628125e+14
1576 1 3.58156486306533938e+14
1577 1 3.58156486306381250e+14
1578 1 3.58156486306645938e+14
1579 1 3.58156486306429625e+14
1580 1 3.58156486306628125e+14
1581 1 3.58156486306666250e+14
1582 1 3.58156486306470312e+14
1583 1 3.58156486306208188e+14
1584 1 3.58156486306607750e+14
1585 1 3.58156486306574625e+14
1586 1 3.58156486306592500e+14
1587 1 3.58156486306549250e+14
1588 1 3.58156486306470312e+14
1589 1 3.58156486306793500e+14
1590 1 3.58156486306500875e+14
1591 1 3.58156486306872375e+14
1592 1 3.58156486306541625e+14
1593 1 3.58156486306857125e+14
1594 1 3.58156486306791000e+14
1595 1 3.58156486306503375e+14
1596 1 3.58156486306651000e+14
1597 1 3.58156486306824062e+14
1598 1 3.58156486306513625e+14
1599 1 3.58156486306704438e+14
1600 1 3.58156486306559375e+14
1601 1 3.58156486306597562e+14
1602 1 3.58156486306485625e+14
1603 1 3.58156486306673875e+14
1604 1 3.58156486306414375e+14
1605 1 3.58156486306327812e+14
1606 1 3.58156486306134375e+14
1607 1 3.58156486306414375e+14
1608 1 3.58156486306671375e+14
1609 1 3.58156486306556875e+14
1610 1 3.58156486306663750e+14
1611 1 3.58156486306704438e+14
1612 1 3.58156486306673875e+14
1613 1 3.58156486306638250e+14
1614 1 3.58156486307098875e+14
1615 1 3.58156486306386375e+14
1616 1 3.58156486306785875e+14
1617 1 3.58156486306625562e+14
1618 1 3.58156486306376188e+14
1619 1 3.58156486306607750e+14
1620 1 3.58156486306793500e+14
1621 1 3.58156486306506000e+14
1622 1 3.58156486306241312e+14
1623 1 3.58156486307065812e+14
1624 1 3.58156486306554312e+14
1625 1 3.58156486306707000e+14
1626 1 3.58156486306671375e+14
1627 1 3.58156486306577188e+14
1628 1 3.58156486306615375e+14
1629 1 3.58156486306666250e+14
1630 1 3.58156486306661188e+14
1631 1 3.58156486306269250e+14
1632 1 3.58156486306470312e+14
1633 1 3.58156486306902938e+14
1634 1 3.58156486306465250e+14
1635 1 3.58156486306897875e+14
1636 1 3.58156486306478000e+14
1637 1 3.58156486306724812e+14
1638 1 3.58156486306709562e+14
1639 1 3.58156486306763000e+14
1640 1 3.58156486306567000e+14
1641 1 3.58156486306503375e+14
1642 1 3.58156486306689188e+14
1643 1 3.58156486306503375e+14
1644 1 3.58156486306638250e+14
1645 1 3.58156486306712125e+14
1646 1 3.58156486306287125e+14
1647 1 3.58156486306735000e+14
1648 1 3.58156486306681562e+14
1649 1 3.58156486306605188e+14
1650 1 3.58156486307221062e+14
1651 1 3.58156486306483062e+14
1652 1 3.58156486306587375e+14
1653 1 3.58156486306630625e+14
1654 1 3.58156486306465250e+14
1655 1 3.58156486306791000e+14
1656 1 3.58156486306617938e+14
1657 1 3.58156486306307438e+14
1658 1 3.58156486306737500e+14
1659 1 3.58156486306732438e+14
1660 1 3.58156486306607750e+14
1661 1 3.58156486306600125e+14
1662 1 3.58156486306707000e+14
1663 1 3.58156486306661188e+14
1664 1 3.58156486306803688e+14
1665 1 3.58156486306157312e+14
1666 1 3.58156486306684062e+14
1667 1 3.58156486306483062e+14
1668 1 3.58156486306536500e+14
1669 1 3.58156486306808750e+14
1670 1 3.58156486306467750e+14
1671 1 3.58156486306602625e+14
1672 1 3.58156486306872375e+14
1673 1 3.58156486306355812e+14
1674 1 3.58156486306625562e+14
1675 1 3.58156486306506000e+14
1676 1 3.58156486306595000e+14
1677 1 3.58156486306859688e+14
1678 1 3.58156486306770625e+14
1679 1 3.58156486306719750e+14
1680 1 3.58156486306831688e+14
1681 1 3.58156486306791000e+14
1682 1 3.58156486306602625e+14
1683 1 3.58156486306363438e+14
1684 1 3.58156486306653562e+14
1685 1 3.58156486306607750e+14
1686 1 3.58156486306462688e+14
1687 1 3.58156486306584875e+14
1688 1 3.58156486306569562e+14
1689 1 3.58156486306531375e+14
1690 1 3.58156486306416875e+14
1691 1 3.58156486306727375e+14
1692 1 3.58156486306852062e+14
1693 1 3.58156486306498312e+14
1694 1 3.58156486306376188e+14
1695 1 3.58156486306640812e+14
1696 1 3.58156486306628125e+14
1697 1 3.58156486306531375e+14
1698 1 3.58156486307035250e+14
1699 1 3.58156486306757875e+14
1700 1 3.58156486306948750e+14
1701 1 3.58156486307083625e+14
1702 1 3.58156486306371062e+14
1703 1 3.58156486306419438e+14
1704 1 3.58156486306846938e+14
1705 1 3.58156486306969125e+14
1706 1 3.58156486306783375e+14
1707 1 3.58156486306452500e+14
1708 1 3.58156486306233688e+14
1709 1 3.58156486306554312e+14
1710 1 3.58156486306747688e+14
1711 1 3.58156486306574625e+14
1712 1 3.58156486306671375e+14
1713 1 3.58156486306472875e+14
1714 1 3.58156486306340500e+14
1715 1 3.58156486306439750e+14
1716 1 3.58156486306920750e+14
1717 1 3.58156486306778250e+14
1718 1 3.58156486306796062e+14
1719 1 3.58156486306841875e+14
1720 1 3.58156486306478000e+14
1721 1 3.58156486306411750e+14
1722 1 3.58156486306623000e+14
1723 1 3.58156486306974188e+14
1724 1 3.58156486306126750e+14
1725 1 3.58156486306686625e+14
1726 1 3.58156486306732438e+14
1727 1 3.58156486306821500e+14
1728 1 3.58156486306699375e+14
1729 1 3.58156486306867312e+14
1730 1 3.58156486306610312e+14
1731 1 3.58156486306600125e+14
1732 1 3.58156486306658625e+14
1733 1 3.58156486306679000e+14
1734 1 3.58156486305994438e+14
1735 1 3.58156486306012250e+14
1736 1 3.58156486306844438e+14
1737 1 3.58156486306605188e+14
1738 1 3.58156486306495750e+14
1739 1 3.58156486306582312e+14
1740 1 3.58156486306656125e+14
1741 1 3.58156486306676500e+14
1742 1 3.58156486306248938e+14
1743 1 3.58156486306345625e+14
1744 1 3.58156486306976750e+14
1745 1 3.58156486306645938e+14
1746 1 3.58156486306816438e+14
1747 1 3.58156486306582312e+14
1748 1 3.58156486306900375e+14
1749 1 3.58156486306806250e+14
1750 1 3.58156486306798625e+14
1751 1 3.58156486306765500e+14
1752 1 3.58156486306546625e+14
1753 1 3.58156486306849500e+14
1754 1 3.58156486306353250e+14
1755 1 3.58156486306399062e+14
1756 1 3.58156486306633188e+14
1757 1 3.58156486306541625e+14
1758 1 3.58156486306498312e+14
1759 1 3.58156486306607750e+14
1760 1 3.58156486306826625e+14
1761 1 3.58156486306612812e+14
1762 1 3.58156486306617938e+14
1763 1 3.58156486306625562e+14
1764 1 3.58156486306391438e+14
1765 1 3.58156486306536500e+14
1766 1 3.58156486306984375e+14
1767 1 3.58156486306938562e+14
1768 1 3.58156486306325250e+14
1769 1 3.58156486306666250e+14
1770 1 3.58156486306215812e+14
1771 1 3.58156486307411938e+14
1772 1 3.58156486306462688e+14
1773 1 3.58156486306521250e+14
1774 1 3.58156486306806250e+14
1775 1 3.58156486306289625e+14
1776 1 3.58156486306763000e+14
1777 1 3.58156486306523750e+14
1778 1 3.58156486306343062e+14
1779 1 3.58156486306994562e+14
1780 1 3.58156486306818938e+14
1781 1 3.58156486306648500e+14
1782 1 3.58156486306645938e+14
1783 1 3.58156486306595000e+14
1784 1 3.58156486306353250e+14
1785 1 3.58156486306335438e+14
1786 1 3.58156486306559375e+14
1787 1 3.58156486306760438e+14
1788 1 3.58156486306925875e+14
1789 1 3.58156486306760438e+14
1790 1 3.58156486306554312e+14
1791 1 3.58156486306526312e+14
1792 1 3.58156486306424500e+14
1793 1 3.58156486306544125e+14
1794 1 3.58156486306439750e+14
1795 1 3.58156486306722250e+14
1796 1 3.58156486307070875e+14
1797 1 3.58156486306569562e+14
1798 1 3.58156486306312500e+14
1799 1 3.58156486306656125e+14
1800 1 3.58156486306895312e+14
1801 1 3.58156486306559375e+14
1802 1 3.58156486306900375e+14
1803 1 3.58156486306699375e+14
1804 1 3.58156486306516125e+14
1805 1 3.58156486306490688e+14
1806 1 3.58156486306808750e+14
1807 1 3.58156486306803688e+14
1808 1 3.58156486306633188e+14
1809 1 3.58156486306009688e+14
1810 1 3.58156486306793500e+14
1811 1 3.58156486306498312e+14
1812 1 3.58156486306360875e+14
1813 1 3.58156486306969125e+14
1814 1 3.58156486306617938e+14
1815 1 3.58156486306910625e+14
1816 1 3.58156486306798625e+14
1817 1 3.58156486306936062e+14
1818 1 3.58156486306989500e+14
1819 1 3.58156486306897875e+14
1820 1 3.58156486306623000e+14
1821 1 3.58156486306409250e+14
1822 1 3.58156486306760438e+14
1823 1 3.58156486306780812e+14
1824 1 3.58156486306472875e+14
1825 1 3.58156486306704438e+14
1826 1 3.58156486306452500e+14
1827 1 3.58156486306638250e+14
1828 1 3.58156486306406688e+14
1829 1 3.58156486306635750e+14
1830 1 3.58156486306526312e+14
1831 1 3.58156486306615375e+14
1832 1 3.58156486306816438e+14
1833 1 3.58156486306386375e+14
1834 1 3.58156486306597562e+14
1835 1 3.58156486306472875e+14
1836 1 3.58156486307042938e+14
1837 1 3.58156486306681562e+14
1838 1 3.58156486306653562e+14
1839 1 3.58156486306546625e+14
1840 1 3.58156486306485625e+14
1841 1 3.58156486306348188e+14
1842 1 3.58156486306564500e+14
1843 1 3.58156486306671375e+14
1844 1 3.58156486306640812e+14
1845 1 3.58156486306572125e+14
1846 1 3.58156486306343062e+14
1847 1 3.58156486306778250e+14
1848 1 3.58156486306696812e+14
1849 1 3.58156486306406688e+14
1850 1 3.58156486306465250e+14
1851 1 3.58156486306335438e+14
1852 1 3.58156486306694250e+14
1853 1 3.58156486306740125e+14
1854 1 3.58156486306745188e+14
1855 1 3.58156486306648500e+14
1856 1 3.58156486306559375e+14
1857 1 3.58156486306722250e+14
1858 1 3.58156486306037750e+14
1859 1 3.58156486306506000e+14
1860 1 3.58156486306383750e+14
1861 1 3.58156486306656125e+14
1862 1 3.58156486306788438e+14
1863 1 3.58156486306506000e+14
1864 1 3.58156486306925875e+14
1865 1 3.58156486306707000e+14
1866 1 3.58156486306592500e+14
1867 1 3.58156486306490688e+14
1868 1 3.58156486306279500e+14
1869 1 3.58156486306233688e+14
1870 1 3.58156486306488125e+14
1871 1 3.58156486307126875e+14
1872 1 3.58156486307042938e+14
1873 1 3.58156486306457625e+14
1874 1 3.58156486306572125e+14
1875 1 3.58156486306999625e+14
1876 1 3.58156486306409250e+14
1877 1 3.58156486306648500e+14
1878 1 3.58156486306933500e+14
1879 1 3.58156486306442312e+14
1880 1 3.58156486306778250e+14
1881 1 3.58156486306620500e+14
1882 1 3.58156486306434688e+14
1883 1 3.58156486306803688e+14
1884 1 3.58156486306381250e+14
1885 1 3.58156486306483062e+14
1886 1 3.58156486306495750e+14
1887 1 3.58156486306602625e+14
1888 1 3.58156486306826625e+14
1889 1 3.58156486306653562e+14
1890 1 3.58156486306643375e+14
1891 1 3.58156486306592500e+14
1892 1 3.58156486306750250e+14
1893 1 3.58156486306793500e+14
1894 1 3.58156486306422000e+14
1895 1 3.58156486306394000e+14
1896 1 3.58156486306727375e+14
1897 1 3.58156486306457625e+14
1898 1 3.58156486306210750e+14
1899 1 3.58156486306798625e+14
1900 1 3.58156486306722250e+14
1901 1 3.58156486306750250e+14
1902 1 3.58156486306615375e+14
1903 1 3.58156486306745188e+14
1904 1 3.58156486306971625e+14
1905 1 3.58156486306256562e+14
1906 1 3.58156486306587375e+14
1907 1 3.58156486306620500e+14
1908 1 3.58156486306943625e+14
1909 1 3.58156486307030188e+14
1910 1 3.58156486306564500e+14
1911 1 3.58156486306752812e+14
1912 1 3.58156486306740125e+14
1913 1 3.58156486306360875e+14
1914 1 3.58156486306620500e+14
1915 1 3.58156486306852062e+14
1916 1 3.58156486306439750e+14
1917 1 3.58156486306050438e+14
1918 1 3.58156486306414375e+14
1919 1 3.58156486306605188e+14
1920 1 3.58156486306531375e+14
1921 1 3.58156486306495750e+14
1922 1 3.58156486306900375e+14
1923 1 3.58156486306511062e+14
1924 1 3.58156486306813875e+14
1925 1 3.58156486306561938e+14
1926 1 3.58156486306717125e+14
1927 1 3.58156486306592500e+14
1928 1 3.58156486306516125e+14
1929 1 3.58156486306671375e+14
1930 1 3.58156486306902938e+14
1931 1 3.58156486305864625e+14
1932 1 3.58156486306366000e+14
1933 1 3.58156486306600125e+14
1934 1 3.58156486306882625e+14
1935 1 3.58156486306129312e+14
1936 1 3.58156486306521250e+14
1937 1 3.58156486306452500e+14
1938 1 3.58156486306755375e+14
1939 1 3.58156486306645938e+14
1940 1 3.58156486306798625e+14
1941 1 3.58156486306615375e+14
1942 1 3.58156486306729875e+14
1943 1 3.58156486306574625e+14
1944 1 3.58156486306462688e+14
1945 1 3.58156486306366000e+14
1946 1 3.58156486306539000e+14
1947 1 3.58156486306406688e+14
1948 1 3.58156486306582312e+14
1949 1 3.58156486306895312e+14
1950 1 3.58156486306691750e+14
1951 1 3.58156486306467750e+14
1952 1 3.58156486306442312e+14
1953 1 3.58156486306215812e+14
1954 1 3.58156486306679000e+14
1955 1 3.58156486306750250e+14
1956 1 3.58156486306460125e+14
1957 1 3.58156486306551750e+14
1958 1 3.58156486306859688e+14
1959 1 3.58156486306732438e+14
1960 1 3.58156486306597562e+14
1961 1 3.58156486306386375e+14
1962 1 3.58156486306689188e+14
1963 1 3.58156486306055500e+14
1964 1 3.58156486306826625e+14
1965 1 3.58156486306516125e+14
1966 1 3.58156486306780812e+14
1967 1 3.58156486306490688e+14
1968 1 3.58156486306844438e+14
1969 1 3.58156486306757875e+14
1970 1 3.58156486306668875e+14
1971 1 3.58156486306648500e+14
1972 1 3.58156486306480500e+14
1973 1 3.58156486306826625e+14
1974 1 3.58156486306561938e+14
1975 1 3.58156486306801125e+14
1976 1 3.58156486306862250e+14
1977 1 3.58156486306712125e+14
1978 1 3.58156486306763000e+14
1979 1 3.58156486306567000e+14
1980 1 3.58156486306236188e+14
1981 1 3.58156486306747688e+14
1982 1 3.58156486306605188e+14
1983 1 3.58156486306472875e+14
1984 1 3.58156486306964000e+14
1985 1 3.58156486306780812e+14
1986 1 3.58156486306630625e+14
1987 1 3.58156486306729875e+14
1988 1 3.58156486307910750e+14
1989 1 3.58156486306676500e+14
1990 1 3.58156486306467750e+14
1991 1 3.58156486306941125e+14
1992 1 3.58156486306877500e+14
1993 1 3.58156486306813875e+14
1994 1 3.58156486306824062e+14
1995 1 3.58156486306750250e+14
1996 1 3.58156486306518688e+14
1997 1 3.58156486306500875e+14
1998 1 3.58156486306635750e+14
1999 1 3.58156486306826625e+14
2000 1 3.58156486306371062e+14
2001 1 3.58156486307020000e+14
2002 1 3.58156486306668875e+14
2003 1 3.58156486306434688e+14
2004 1 3.58156486307045438e+14
2005 1 3.58156486306404125e+14
2006 1 3.58156486306623000e+14
2007 1 3.58156486306780812e+14
2008 1 3.58156486306684062e+14
2009 1 3.58156486306549250e+14
2010 1 3.58156486306740125e+14
2011 1 3.58156486306679000e+14
2012 1 3.58156486306567000e+14
2013 1 3.58156486306645938e+14
2014 1 3.58156486306513625e+14
2015 1 3.58156486306208188e+14
2016 1 3.58156486306686625e+14
2017 1 3.58156486306880000e+14
2018 1 3.58156486306732438e+14
2019 1 3.58156486306457625e+14
2020 1 3.58156486306679000e+14
2021 1 3.58156486306628125e+14
2022 1 3.58156486306679000e+14
2023 1 3.58156486306539000e+14
2024 1 3.58156486306526312e+14
2025 1 3.58156486306689188e+14
2026 1 3.58156486306386375e+14
2027 1 3.58156486307274500e+14
2028 1 3.58156486306617938e+14
2029 1 3.58156486306500875e+14
2030 1 3.58156486306694250e+14
2031 1 3.58156486306546625e+14
2032 1 3.58156486306493250e+14
2033 1 3.58156486307154875e+14
2034 1 3.58156486306770625e+14
2035 1 3.58156486306633188e+14
2036 1 3.58156486306928375e+14
2037 1 3.58156486307330500e+14
2038 1 3.58156486306518688e+14
2039 1 3.58156486306997125e+14
2040 1 3.58156486306574625e+14
2041 1 3.58156486306345625e+14
2042 1 3.58156486306869875e+14
2043 1 3.58156486306276938e+14
2044 1 3.58156486306521250e+14
2045 1 3.58156486306617938e+14
2046 1 3.58156486306648500e+14
2047 1 3.58156486306551750e+14
2048 1 3.58156486306666250e+14
2049 1 3.58156486306556875e+14
2050 1 3.58156486306282000e+14
2051 1 3.58156486306976750e+14
2052 1 3.58156486306185312e+14
2053 1 3.58156486306763000e+14
2054 1 3.58156486306602625e+14
2055 1 3.58156486306422000e+14
2056 1 3.58156486306119125e+14
2057 1 3.58156486306938562e+14
2058 1 3.58156486306429625e+14
2059 1 3.58156486306933500e+14
2060 1 3.58156486306455062e+14
2061 1 3.58156486306852062e+14
2062 1 3.58156486306587375e+14
2063 1 3.58156486306628125e+14
2064 1 3.58156486306696812e+14
2065 1 3.58156486306595000e+14
2066 1 3.58156486306719750e+14
2067 1 3.58156486306597562e+14
2068 1 3.58156486306890250e+14
2069 1 3.58156486306350688e+14
2070 1 3.58156486306793500e+14
2071 1 3.58156486306577188e+14
2072 1 3.58156486306584875e+14
2073 1 3.58156486306490688e+14
2074 1 3.58156486306765500e+14
2075 1 3.58156486306353250e+14
2076 1 3.58156486306513625e+14
2077 1 3.58156486306717125e+14
2078 1 3.58156486306704438e+14
2079 1 3.58156486306439750e+14
2080 1 3.58156486306788438e+14
2081 1 3.58156486306701938e+14
2082 1 3.58156486306768062e+14
2083 1 3.58156486306628125e+14
2084 1 3.58156486306834250e+14
2085 1 3.58156486306442312e+14
2086 1 3.58156486306686625e+14
2087 1 3.58156486306317625e+14
2088 1 3.58156486306577188e+14
2089 1 3.58156486306661188e+14
2090 1 3.58156486306607750e+14
2091 1 3.58156486306712125e+14
2092 1 3.58156486306452500e+14
2093 1 3.58156486306661188e+14
2094 1 3.58156486306887688e+14
2095 1 3.58156486306518688e+14
2096 1 3.58156486306701938e+14
2097 1 3.58156486306607750e+14
2098 1 3.58156486306773125e+14
2099 1 3.58156486306434688e+14
2100 1 3.58156486306630625e+14
2101 1 3.58156486306768062e+14
2102 1 3.58156486306864750e+14
2103 1 3.58156486306561938e+14
2104 1 3.58156486306437250e+14
2105 1 3.58156486306813875e+14
2106 1 3.58156486306628125e+14
2107 1 3.58156486306531375e+14
2108 1 3.58156486306533938e+14
2109 1 3.58156486306498312e+14
2110 1 3.58156486306755375e+14
2111 1 3.58156486306651000e+14
2112 1 3.58156486306442312e+14
2113 1 3.58156486306495750e+14
2114 1 3.58156486306495750e+14
2115 1 3.58156486306724812e+14
2116 1 3.58156486306701938e+14
2117 1 3.58156486306936062e+14
2118 1 3.58156486306808750e+14
2119 1 3.58156486306093688e+14
2120 1 3.58156486306172562e+14
2121 1 3.58156486306460125e+14
2122 1 3.58156486306699375e+14
2123 1 3.58156486306595000e+14
2124 1 3.58156486307294875e+14
2125 1 3.58156486305918125e+14
2126 1 3.58156486306465250e+14
2127 1 3.58156486306612812e+14
2128 1 3.58156486306666250e+14
2129 1 3.58156486306689188e+14
2130 1 3.58156486306941125e+14
2131 1 3.58156486306475438e+14
2132 1 3.58156486306679000e+14
2133 1 3.58156486306722250e+14
2134 1 3.58156486306679000e+14
2135 1 3.58156486306635750e+14
2136 1 3.58156486306643375e+14
2137 1 3.58156486306612812e+14
2138 1 3.58156486306671375e+14
2139 1 3.58156486306877500e+14
2140 1 3.58156486306658625e+14
2141 1 3.58156486307167625e+14
2142 1 3.58156486306378688e+14
2143 1 3.58156486306679000e+14
2144 1 3.58156486306701938e+14
2145 1 3.58156486306592500e+14
2146 1 3.58156486306259125e+14
2147 1 3.58156486306780812e+14
2148 1 3.58156486306572125e+14
2149 1 3.58156486306645938e+14
2150 1 3.58156486306439750e+14
2151 1 3.58156486307007250e+14
2152 1 3.58156486305821375e+14
2153 1 3.58156486306829125e+14
2154 1 3.58156486306640812e+14
2155 1 3.58156486305505812e+14
2156 1 3.58156486306640812e+14
2157 1 3.58156486306671375e+14
2158 1 3.58156486306457625e+14
2159 1 3.58156486306447438e+14
2160 1 3.58156486306564500e+14
2161 1 3.58156486306694250e+14
2162 1 3.58156486306742625e+14
2163 1 3.58156486306780812e+14
2164 1 3.58156486306658625e+14
2165 1 3.58156486306406688e+14
2166 1 3.58156486306992000e+14
2167 1 3.58156486306269250e+14
2168 1 3.58156486306717125e+14
2169 1 3.58156486306605188e+14
2170 1 3.58156486306729875e+14
2171 1 3.58156486306811375e+14
2172 1 3.58156486306508500e+14
2173 1 3.58156486306732438e+14
2174 1 3.58156486306419438e+14
2175 1 3.58156486306635750e+14
2176 1 3.58156486306223500e+14
2177 1 3.58156486306213312e+14
2178 1 3.58156486307839500e+14
2179 1 3.58156486306740125e+14
2180 1 3.58156486306908000e+14
2181 1 3.58156486306806250e+14
2182 1 3.58156486306796062e+14
2183 1 3.58156486306658625e+14
2184 1 3.58156486306658625e+14
2185 1 3.58156486306770625e+14
2186 1 3.58156486306567000e+14
2187 1 3.58156486306500875e+14
2188 1 3.58156486306587375e+14
2189 1 3.58156486306679000e+14
2190 1 3.58156486306564500e+14
2191 1 3.58156486307025125e+14
2192 1 3.58156486306946250e+14
2193 1 3.58156486306332875e+14
2194 1 3.58156486306951312e+14
2195 1 3.58156486306610312e+14
2196 1 3.58156486306717125e+14
2197 1 3.58156486306373625e+14
2198 1 3.58156486306528875e+14
2199 1 3.58156486306416875e+14
2200 1 3.58156486306541625e+14
2201 1 3.58156486306620500e+14
2202 1 3.58156486306760438e+14
2203 1 3.58156486306610312e+14
2204 1 3.58156486307261750e+14
2205 1 3.58156486306615375e+14
2206 1 3.58156486306485625e+14
2207 1 3.58156486306826625e+14
2208 1 3.58156486306363438e+14
2209 1 3.58156486306546625e+14
2210 1 3.58156486306584875e+14
2211 1 3.58156486306887688e+14
2212 1 3.58156486306648500e+14
2213 1 3.58156486306422000e+14
2214 1 3.58156486306536500e+14
2215 1 3.58156486306694250e+14
2216 1 3.58156486306648500e+14
2217 1 3.58156486306829125e+14
2218 1 3.58156486306589938e+14
2219 1 3.58156486306404125e+14
2220 1 3.58156486306559375e+14
2221 1 3.58156486306727375e+14
2222 1 3.58156486306943625e+14
2223 1 3.58156486306623000e+14
2224 1 3.58156486306205625e+14
2225 1 3.58156486306857125e+14
2226 1 3.58156486306157312e+14
2227 1 3.58156486306567000e+14
2228 1 3.58156486306803688e+14
2229 1 3.58156486306452500e+14
2230 1 3.58156486306783375e+14
2231 1 3.58156486306979312e+14
2232 1 3.58156486306760438e+14
2233 1 3.58156486306587375e+14
2234 1 3.58156486306694250e+14
2235 1 3.58156486306475438e+14
2236 1 3.58156486306340500e+14
2237 1 3.58156486306633188e+14
2238 1 3.58156486306411750e+14
2239 1 3.58156486306373625e+14
2240 1 3.58156486306773125e+14
2241 1 3.58156486306722250e+14
2242 1 3.58156486306775688e+14
2243 1 3.58156486306508500e+14
2244 1 3.58156486306724812e+14
2245 1 3.58156486306645938e+14
2246 1 3.58156486306495750e+14
2247 1 3.58156486307014875e+14
2248 1 3.58156486306424500e+14
2249 1 3.58156486306668875e+14
2250 1 3.58156486306444875e+14
2251 1 3.58156486306592500e+14
2252 1 3.58156486306793500e+14
2253 1 3.58156486306648500e+14
2254 1 3.58156486306327812e+14
2255 1 3.58156486306554312e+14
2256 1 3.58156486306933500e+14
2257 1 3.58156486306559375e+14
2258 1 3.58156486306551750e+14
2259 1 3.58156486306676500e+14
2260 1 3.58156486306617938e+14
2261 1 3.58156486306595000e+14
2262 1 3.58156486306854625e+14
2263 1 3.58156486306401625e+14
2264 1 3.58156486306859688e+14
2265 1 3.58156486306686625e+14
2266 1 3.58156486306569562e+14
2267 1 3.58156486306607750e+14
2268 1 3.58156486306890250e+14
2269 1 3.58156486307114188e+14
2270 1 3.58156486306852062e+14
2271 1 3.58156486307193062e+14
2272 1 3.58156486306648500e+14
2273 1 3.58156486306620500e+14
2274 1 3.58156486306508500e+14
2275 1 3.58156486306450000e+14
2276 1 3.58156486306712125e+14
2277 1 3.58156486306740125e+14
2278 1 3.58156486306233688e+14
2279 1 3.58156486307106500e+14
2280 1 3.58156486306480500e+14
2281 1 3.58156486306129312e+14
2282 1 3.58156486306864750e+14
2283 1 3.58156486306236188e+14
2284 1 3.58156486306668875e+14
2285 1 3.58156486306854625e+14
2286 1 3.58156486306282000e+14
2287 1 3.58156486306971625e+14
2288 1 3.58156486306012250e+14
2289 1 3.58156486306322750e+14
2290 1 3.58156486306735000e+14
2291 1 3.58156486306343062e+14
2292 1 3.58156486306953875e+14
2293 1 3.58156486306829125e+14
2294 1 3.58156486306818938e+14
2295 1 3.58156486306722250e+14
2296 1 3.58156486306882625e+14
2297 1 3.58156486306358375e+14
2298 1 3.58156486306503438e+14
2299 1 3.58156486306327812e+14
2300 1 3.58156486306399062e+14
2301 1 3.58156486307157438e+14
