%%MatrixMarket matrix coordinate  real general
2301 2 4602
1 1 1.40823603000000007e-07
2 1 1.41620840000000023e-07
3 1 1.42954159999999996e-07
4 1 1.44804162999999960e-07
5 1 1.43998623000000000e-07
6 1 1.43409709999999992e-07
7 1 1.43231939999999989e-07
8 1 1.44706944999999986e-07
9 1 1.45759726000000015e-07
10 1 1.46287489000000019e-07
11 1 1.46929177999999989e-07
12 1 1.47590256000000016e-07
13 1 1.48770828000000040e-07
14 1 1.49845828999999992e-07
15 1 1.49990292000000009e-07
16 1 1.49445820000000036e-07
17 1 1.49451379999999982e-07
18 1 1.49926375999999976e-07
19 1 1.50648612999999987e-07
20 1 1.51248597999999978e-07
21 1 1.52720833000000011e-07
22 1 1.52845839999999993e-07
23 1 1.54212503000000003e-07
24 1 1.55034722999999960e-07
25 1 1.55745831000000019e-07
26 1 1.56450679999999980e-07
27 1 1.57559729000000012e-07
28 1 1.57798594999999982e-07
29 1 1.58079166000000015e-07
30 1 1.58743057000000002e-07
31 1 1.59237489999999989e-07
32 1 1.59954165999999997e-07
33 1 1.60568046999999997e-07
34 1 1.60665283000000011e-07
35 1 1.60951384999999964e-07
36 1 1.61554165000000008e-07
37 1 1.62212524000000018e-07
38 1 1.62154178999999998e-07
39 1 1.61848601999999994e-07
40 1 1.61006946999999974e-07
41 1 1.59862499000000016e-07
42 1 1.59465264999999987e-07
43 1 1.58526402000000002e-07
44 1 1.58284721000000011e-07
45 1 1.59320841000000033e-07
46 1 1.59201392999999967e-07
47 1 1.59023619000000003e-07
48 1 1.58359727999999963e-07
49 1 1.57962503000000020e-07
50 1 1.56359719999999995e-07
51 1 1.56568049999999999e-07
52 1 1.56312494000000049e-07
53 1 1.56573610000000024e-07
54 1 1.56387500999999974e-07
55 1 1.56784735000000002e-07
56 1 1.57631930999999980e-07
57 1 1.59229174000000025e-07
58 1 1.60634747000000017e-07
59 1 1.61448611999999974e-07
60 1 1.61601390999999981e-07
61 1 1.63237494999999937e-07
62 1 1.64523600000000029e-07
63 1 1.65754169999999971e-07
64 1 1.65823590000000011e-07
65 1 1.65726395000000015e-07
66 1 1.65376395999999992e-07
67 1 1.66045836999999994e-07
68 1 1.67481955999999990e-07
69 1 1.68914413000000016e-07
70 1 1.69590282000000016e-07
71 1 1.71015282000000017e-07
72 1 1.71695824000000001e-07
73 1 1.71729163999999948e-07
74 1 1.71109714999999974e-07
75 1 1.71473618000000034e-07
76 1 1.71093044000000036e-07
77 1 1.71112499000000014e-07
78 1 1.71379184999999972e-07
79 1 1.70487517999999983e-07
80 1 1.70240268999999964e-07
81 1 1.68679141999999957e-07
82 1 1.67815284999999999e-07
83 1 1.66137504999999980e-07
84 1 1.65295809999999999e-07
85 1 1.65281944000000019e-07
86 1 1.64915275999999987e-07
87 1 1.64937495999999989e-07
88 1 1.66301383999999991e-07
89 1 1.65995845999999997e-07
90 1 1.66453685999999989e-07
91 1 1.67284719999999969e-07
92 1 1.67806949999999992e-07
93 1 1.68673610999999958e-07
94 1 1.69481964000000010e-07
95 1 1.70204163000000016e-07
96 1 1.71293050000000020e-07
97 1 1.72512489999999981e-07
98 1 1.72262499999999998e-07
99 1 1.75054169000000005e-07
100 1 1.76604195000000004e-07
101 1 1.77634716000000017e-07
102 1 1.78634700000000008e-07
103 1 1.79079169999999993e-07
104 1 1.79251384999999989e-07
105 1 1.79920825999999991e-07
106 1 1.80148619999999979e-07
107 1 1.79943050000000008e-07
108 1 1.80456943999999942e-07
109 1 1.82101383000000037e-07
110 1 1.83337497999999976e-07
111 1 1.83915272000000023e-07
112 1 1.83943061999999981e-07
113 1 1.84348601999999991e-07
114 1 1.85206946999999992e-07
115 1 1.84643058999999997e-07
116 1 1.84240283999999985e-07
117 1 1.82009735000000044e-07
118 1 1.80968056000000001e-07
119 1 1.80348610000000010e-07
120 1 1.80454160000000034e-07
121 1 1.79387489999999994e-07
122 1 1.78415280000000036e-07
123 1 1.76884726999999948e-07
124 1 1.74704151000000019e-07
125 1 1.73893029999999984e-07
126 1 1.72809719999999987e-07
127 1 1.70554140000000038e-07
128 1 1.65834710000000009e-07
129 1 1.65426845999999987e-07
130 1 1.64201392999999999e-07
131 1 1.62720832999999995e-07
132 1 1.62151393999999981e-07
133 1 1.60256233000000001e-07
134 1 1.59418068000000014e-07
135 1 1.58998620000000004e-07
136 1 1.59006960000000029e-07
137 1 1.60654162999999986e-07
138 1 1.61895830000000001e-07
139 1 1.61662480000000003e-07
140 1 1.60845832999999986e-07
141 1 1.60112494999999941e-07
142 1 1.58926391999999969e-07
143 1 1.56759729000000005e-07
144 1 1.56237488000000021e-07
145 1 1.54768059999999979e-07
146 1 1.51375083999999978e-07
147 1 1.50848607999999984e-07
148 1 1.49995823000000035e-07
149 1 1.48976393000000019e-07
150 1 1.47796590000000005e-07
151 1 1.47179145999999997e-07
152 1 1.47173624000000004e-07
153 1 1.46281948000000009e-07
154 1 1.45098599999999999e-07
155 1 1.44101390999999990e-07
156 1 1.42539128999999995e-07
157 1 1.41456890000000019e-07
158 1 1.40734720000000013e-07
159 1 1.39959716999999996e-07
160 1 1.39376401999999966e-07
161 1 1.39154157999999994e-07
162 1 1.38493052000000025e-07
163 1 1.38448610000000012e-07
164 1 1.37431945999999999e-07
165 1 1.36418056999999993e-07
166 1 1.36287507999999998e-07
167 1 1.35090283999999999e-07
168 1 1.34312495999999991e-07
169 1 1.32962502999999968e-07
170 1 1.31722612000000016e-07
171 1 1.29054174000000008e-07
172 1 1.27529372999999980e-07
173 1 1.27170829999999987e-07
174 1 1.25554171000000025e-07
175 1 1.24512260000000014e-07
176 1 1.24509729000000017e-07
177 1 1.24490318000000014e-07
178 1 1.23834724000000001e-07
179 1 1.23570843000000001e-07
180 1 1.22884731000000008e-07
181 1 1.22704150000000000e-07
182 1 1.22404170000000023e-07
183 1 1.22493059999999990e-07
184 1 1.22859730000000029e-07
185 1 1.23984966000000044e-07
186 1 1.24634720000000021e-07
187 1 1.24398619999999999e-07
188 1 1.23381949999999990e-07
189 1 1.22695840000000004e-07
190 1 1.23287499999999998e-07
191 1 1.22354170000000019e-07
192 1 1.22024440000000016e-07
193 1 1.21551390000000013e-07
194 1 1.21954160000000006e-07
195 1 1.21754169999999974e-07
196 1 1.22593070000000007e-07
197 1 1.22709719999999982e-07
198 1 1.23629160000000026e-07
199 1 1.24393060000000027e-07
200 1 1.25293050000000005e-07
201 1 1.26001379999999993e-07
202 1 1.25656960000000012e-07
203 1 1.24865280000000010e-07
204 1 1.24579149999999982e-07
205 1 1.27576398999999995e-07
206 1 1.29212499999999993e-07
207 1 1.30959729999999976e-07
208 1 1.30843057999999975e-07
209 1 1.30906953999999988e-07
210 1 1.32220820999999989e-07
211 1 1.33345830000000000e-07
212 1 1.33347760000000014e-07
213 1 1.33804159999999996e-07
214 1 1.34195829999999985e-07
215 1 1.35520830000000005e-07
216 1 1.35823517000000007e-07
217 1 1.36326388999999981e-07
218 1 1.37490282000000013e-07
219 1 1.38307437999999996e-07
220 1 1.39060916999999994e-07
221 1 1.38919134000000011e-07
222 1 1.37507504999999967e-07
223 1 1.35995951000000030e-07
224 1 1.35933150999999996e-07
225 1 1.36533078999999991e-07
226 1 1.34791546000000001e-07
227 1 1.34970140000000028e-07
228 1 1.36603990000000014e-07
229 1 1.36524200000000023e-07
230 1 1.35553330999999979e-07
231 1 1.33821191999999999e-07
232 1 1.34594182999999970e-07
233 1 1.35449171000000022e-07
234 1 1.35768337000000007e-07
235 1 1.37121896999999999e-07
236 1 1.36918485999999998e-07
237 1 1.35049496000000006e-07
238 1 1.33227669000000024e-07
239 1 1.30912888999999997e-07
240 1 1.28342909000000040e-07
241 1 1.27331488999999991e-07
242 1 1.26912319999999988e-07
243 1 1.25490960000000009e-07
244 1 1.24784633999999985e-07
245 1 1.23846164999999973e-07
246 1 1.23579897999999999e-07
247 1 1.23095181000000026e-07
248 1 1.22672356000000022e-07
249 1 1.22115996999999969e-07
250 1 1.21388086999999999e-07
251 1 1.21251783999999990e-07
252 1 1.22048445000000008e-07
253 1 1.21865159999999985e-07
254 1 1.20771548999999996e-07
255 1 1.19334613000000002e-07
256 1 1.17648196999999982e-07
257 1 1.16276751999999990e-07
258 1 1.15132268999999998e-07
259 1 1.14181956999999986e-07
260 1 1.13209340000000021e-07
261 1 1.11872576999999999e-07
262 1 1.10722785999999996e-07
263 1 1.10223562999999998e-07
264 1 1.08833073999999996e-07
265 1 1.07962740999999999e-07
266 1 1.06629361999999998e-07
267 1 1.05708280999999996e-07
268 1 1.04790394000000014e-07
269 1 1.04440041000000004e-07
270 1 1.03926705999999994e-07
271 1 1.04126399999999984e-07
272 1 1.04887577999999997e-07
273 1 1.04562836000000009e-07
274 1 1.04175576999999993e-07
275 1 1.02955349999999997e-07
276 1 1.01834640999999980e-07
277 1 1.01248273999999996e-07
278 1 1.00574149999999986e-07
279 1 1.00388755999999988e-07
280 1 1.01651925999999972e-07
281 1 1.01032809999999988e-07
282 1 1.01734408999999991e-07
283 1 1.01228275000000016e-07
284 1 9.99589729999999834e-08
285 1 9.99093910000000004e-08
286 1 9.94495579999999787e-08
287 1 9.76953400000000180e-08
288 1 9.71422200000000012e-08
289 1 9.54873750000000103e-08
290 1 9.45405199999999919e-08
291 1 9.46438979999999976e-08
292 1 9.28523449999999974e-08
293 1 9.27825260000000055e-08
294 1 9.29710390000000017e-08
295 1 9.24622149999999968e-08
296 1 9.12227730000000061e-08
297 1 9.07348820000000069e-08
298 1 9.07851600000000000e-08
299 1 9.02122019999999791e-08
300 1 9.01803589999999962e-08
301 1 9.07354069999999923e-08
302 1 9.02754689999999868e-08
303 1 8.91442389999999743e-08
304 1 8.91615100000000105e-08
305 1 8.79148009999999962e-08
306 1 8.85156149999999897e-08
307 1 8.71775440000000017e-08
308 1 8.60959240000000077e-08
309 1 8.60649300000000208e-08
310 1 8.53309630000000096e-08
311 1 8.46393200000000038e-08
312 1 8.42662430000000030e-08
313 1 8.47134110000000075e-08
314 1 8.43335529999999859e-08
315 1 8.29133129999999933e-08
316 1 8.21720219999999900e-08
317 1 8.14482499999999961e-08
318 1 8.09470650000000143e-08
319 1 8.16806979999999917e-08
320 1 8.11262320000000157e-08
321 1 8.04009630000000045e-08
322 1 8.03797720000000025e-08
323 1 7.99433949999999935e-08
324 1 7.91047810000000056e-08
325 1 7.87493089999999952e-08
326 1 7.80197910000000159e-08
327 1 7.67520520000000013e-08
328 1 7.50042099999999953e-08
329 1 7.39144280000000133e-08
330 1 7.29617599999999915e-08
331 1 7.26265000000000184e-08
332 1 7.12208509999999885e-08
333 1 7.04991909999999797e-08
334 1 7.01114990000000085e-08
335 1 6.87667510000000063e-08
336 1 6.82087900000000047e-08
337 1 6.82427690000000068e-08
338 1 6.98550459999999940e-08
339 1 7.00645109999999987e-08
340 1 7.10145809999999931e-08
341 1 7.18512010000000138e-08
342 1 7.11315110000000042e-08
343 1 7.13510609999999977e-08
344 1 6.97625110000000136e-08
345 1 6.85426380000000041e-08
346 1 6.77277279999999888e-08
347 1 6.63087889999999907e-08
348 1 6.68650340000000011e-08
349 1 6.73958020000000131e-08
350 1 6.76227999999999985e-08
351 1 6.91200260000000012e-08
352 1 6.94866089999999900e-08
353 1 7.02201079999999975e-08
354 1 7.02425099999999984e-08
355 1 7.06445459999999892e-08
356 1 6.95346320000000087e-08
357 1 6.94147010000000038e-08
358 1 6.86726899999999960e-08
359 1 6.93236780000000025e-08
360 1 7.01095010000000002e-08
361 1 7.19574020000000028e-08
362 1 7.26409580000000016e-08
363 1 7.36040780000000201e-08
364 1 7.61470410000000033e-08
365 1 7.66903880000000249e-08
366 1 7.71304599999999909e-08
367 1 7.66533289999999807e-08
368 1 7.65274480000000048e-08
369 1 7.57154079999999977e-08
370 1 7.56134559999999900e-08
371 1 7.49889989999999937e-08
372 1 7.52982710000000073e-08
373 1 7.67374990000000044e-08
374 1 7.71291689999999930e-08
375 1 7.96736189999999969e-08
376 1 8.07514000000000146e-08
377 1 8.13652799999999976e-08
378 1 8.16847320000000005e-08
379 1 8.22486099999999857e-08
380 1 8.27263829999999954e-08
381 1 8.38458350000000055e-08
382 1 8.50736239999999973e-08
383 1 8.63515660000000052e-08
384 1 8.74402700000000075e-08
385 1 9.07041650000000057e-08
386 1 9.14208320000000078e-08
387 1 9.14541720000000081e-08
388 1 9.21374989999999967e-08
389 1 9.23708439999999904e-08
390 1 9.39013959999999954e-08
391 1 9.51105399999999829e-08
392 1 9.66736220000000012e-08
393 1 9.77402780000000030e-08
394 1 9.83625129999999858e-08
395 1 9.96374989999999778e-08
396 1 1.00191888999999983e-07
397 1 1.01440267999999993e-07
398 1 1.02404165000000011e-07
399 1 1.02590284000000005e-07
400 1 1.03096763999999991e-07
401 1 1.03101377000000009e-07
402 1 1.03102890000000005e-07
403 1 1.03112449999999995e-07
404 1 1.03120839999999989e-07
405 1 1.03474425999999988e-07
406 1 1.02937509999999988e-07
407 1 1.03304170000000004e-07
408 1 1.04245852999999989e-07
409 1 1.04645833999999976e-07
410 1 1.05062513000000013e-07
411 1 1.05373611000000019e-07
412 1 1.05393049999999992e-07
413 1 1.04948616000000006e-07
414 1 1.05598601999999990e-07
415 1 1.07061653000000021e-07
416 1 1.07859726000000000e-07
417 1 1.07423620000000021e-07
418 1 1.07851389999999989e-07
419 1 1.09270839999999988e-07
420 1 1.09870840000000020e-07
421 1 1.10087499999999999e-07
422 1 1.10859708999999978e-07
423 1 1.11226377000000024e-07
424 1 1.11920833999999994e-07
425 1 1.11654176999999995e-07
426 1 1.10959719999999986e-07
427 1 1.11620829999999996e-07
428 1 1.12204179999999995e-07
429 1 1.14504060999999987e-07
430 1 1.15504160000000024e-07
431 1 1.16912507999999985e-07
432 1 1.17337502999999985e-07
433 1 1.18343048000000005e-07
434 1 1.19159708000000002e-07
435 1 1.21220845999999968e-07
436 1 1.21915279999999974e-07
437 1 1.22362489999999998e-07
438 1 1.23509721999999970e-07
439 1 1.24395837999999992e-07
440 1 1.25509729000000013e-07
441 1 1.26195841000000006e-07
442 1 1.26676388000000020e-07
443 1 1.27743053000000015e-07
444 1 1.28345842000000012e-07
445 1 1.29234724000000010e-07
446 1 1.29943046999999999e-07
447 1 1.30459708999999995e-07
448 1 1.30956945000000012e-07
449 1 1.31543055000000016e-07
450 1 1.32718057999999983e-07
451 1 1.33920832000000024e-07
452 1 1.35120839999999985e-07
453 1 1.36215277000000005e-07
454 1 1.37068042999999991e-07
455 1 1.37629165999999961e-07
456 1 1.38959732000000002e-07
457 1 1.39215280000000003e-07
458 1 1.40323610000000021e-07
459 1 1.02843523999999998e-07
460 1 1.02970143999999995e-07
461 1 1.03033453999999999e-07
462 1 1.03065109000000002e-07
463 1 1.36751727999999999e-07
464 1 1.38213319499999989e-07
465 1 1.30086114999999985e-07
466 1 1.30522922499999994e-07
467 1 1.26077774500000002e-07
468 1 1.25328462249999978e-07
469 1 1.25703118374999990e-07
470 1 1.25261120000000011e-07
471 1 1.03080936500000003e-07
472 1 1.03088850249999990e-07
473 1 1.03092807124999984e-07
474 1 1.03094785562499994e-07
475 1 1.43969442499999974e-07
476 1 1.03102148240644098e-07
477 1 1.03102140791525049e-07
478 1 1.03102136991440692e-07
479 1 1.03095774781249999e-07
480 1 1.03098944941001126e-07
481 1 1.03107669999999993e-07
482 1 1.03104961511374595e-07
483 1 1.03105280000000006e-07
484 1 1.33929842611335592e-07
485 1 1.33638318653543157e-07
486 1 1.33492556527322658e-07
487 1 1.33419675158594901e-07
488 1 1.33383233864799406e-07
489 1 1.33365012013038346e-07
490 1 1.33575960000000018e-07
491 1 1.33355898665526380e-07
492 1 1.33351337143137523e-07
493 1 1.33349046655161132e-07
494 1 1.33347881657558853e-07
495 1 1.32783325499999995e-07
496 1 1.33064577750000011e-07
497 1 1.33205203874999992e-07
498 1 1.33275516937500010e-07
499 1 1.33310673468750018e-07
500 1 1.33341289067955487e-07
501 1 1.33328251734375023e-07
502 1 1.33337040867187525e-07
503 1 1.33345001432558535e-07
504 1 1.33461860000000003e-07
505 1 1.33404809999999995e-07
506 1 1.33376285000000017e-07
507 1 1.33362022500000002e-07
508 1 1.33355639250477576e-07
509 1 1.33354891249999995e-07
510 1 1.33351594026368054e-07
511 1 1.33351325624999991e-07
512 1 1.03108579524749334e-07
513 1 1.24785772473886674e-07
514 1 1.25033215500000019e-07
515 1 1.24648383069104818e-07
516 1 1.24772737750000030e-07
517 1 1.24579687951253361e-07
518 1 1.24642498875000008e-07
519 1 1.24545339562799997e-07
520 1 1.24577379437500024e-07
521 1 1.24528163711810461e-07
522 1 1.24544819718750006e-07
523 1 1.24519572464576358e-07
524 1 1.24528539859375023e-07
525 1 1.24515270192250751e-07
526 1 1.24520399929687505e-07
527 1 1.24513105682668568e-07
528 1 1.24516329964843772e-07
529 1 1.33359007562218458e-07
530 1 1.33358456874999998e-07
531 1 1.33365617675404476e-07
532 1 1.33366028203156167e-07
533 1 1.33360470843164980e-07
534 1 1.33345400834497233e-07
535 1 1.33349371650258493e-07
536 1 1.33332817096918851e-07
537 1 1.33338308239570595e-07
538 1 1.03115078498310924e-07
539 1 1.03106684673335160e-07
540 1 1.03132462862854565e-07
541 1 1.03297632999999995e-07
542 1 1.03209236499999992e-07
543 1 1.03165038249999991e-07
544 1 1.03142939124999990e-07
545 1 1.03125087784086491e-07
546 1 1.03105845007959162e-07
547 1 1.24500405957092990e-07
548 1 1.24505181193842309e-07
549 1 1.24500023500000016e-07
550 1 1.33341506605174189e-07
551 1 1.33383066631394689e-07
552 1 1.33308467623789015e-07
553 1 1.33322875774945049e-07
554 1 1.33330141408773732e-07
555 1 1.33371911638475098e-07
556 1 1.33403765262786455e-07
557 1 1.33385267743668420e-07
558 1 1.24308766252618315e-07
559 1 1.24402147595440771e-07
560 1 1.24448921897051655e-07
561 1 1.24472477360774984e-07
562 1 1.33404575742905509e-07
563 1 1.33303139551285902e-07
564 1 1.33345663215890808e-07
565 1 1.03112422070018972e-07
566 1 1.33334468563224498e-07
567 1 1.24498237399765849e-07
568 1 1.33344974129916265e-07
569 1 1.33332825370261309e-07
570 1 1.33478054593800678e-07
571 1 1.33439909865405062e-07
572 1 1.24510398212991658e-07
573 1 1.03165987308297194e-07
574 1 1.33265925238177343e-07
575 1 1.24162521000000008e-07
576 1 1.24326419500000011e-07
577 1 1.24382060213777154e-07
578 1 1.24408368750000025e-07
579 1 1.24433555786752142e-07
580 1 1.24449343375000020e-07
581 1 1.24469830687500030e-07
582 1 1.24418934477097206e-07
583 1 1.24428856062500009e-07
584 1 1.24367394125000005e-07
585 1 1.33239644995848245e-07
586 1 1.33290960945015852e-07
587 1 1.03119695431369625e-07
588 1 1.24500198348053236e-07
589 1 1.33438995277293007e-07
590 1 1.03260592476614457e-07
591 1 1.03200767306397864e-07
592 1 1.33311453286420271e-07
593 1 1.33314821235620173e-07
594 1 1.24277134007216302e-07
595 1 1.33620309107614117e-07
596 1 1.33537027674116920e-07
597 1 1.24373628429083730e-07
598 1 1.03236396241127787e-07
599 1 1.03332959903073626e-07
600 1 1.24314868434387304e-07
601 1 1.33404704260393553e-07
602 1 1.23936427644864281e-07
603 1 1.24126649141884167e-07
604 1 1.24499765287260323e-07
605 1 1.33652320118563894e-07
606 1 1.24185503731480072e-07
607 1 1.24244470249999996e-07
608 1 1.25515790312499997e-07
609 1 1.25829170000000016e-07
610 1 1.25866308075832083e-07
611 1 1.25890446437499983e-07
612 1 1.25784713225371038e-07
613 1 1.25796782406249973e-07
614 1 1.25749950390624968e-07
615 1 1.25837579831574543e-07
616 1 1.25843614421874978e-07
617 1 1.25817181118634524e-07
618 1 1.25820198414062475e-07
619 1 1.25806981761805650e-07
620 1 1.25808490410156238e-07
621 1 1.25802636408203105e-07
622 1 1.25814344412109343e-07
623 1 1.25796468496348285e-07
624 1 1.25830397769410630e-07
625 1 1.25831906417968713e-07
626 1 1.25826052416015608e-07
627 1 1.25837760419921846e-07
628 1 1.25837670126162129e-07
629 1 1.25867030429687480e-07
630 1 1.25852424240307201e-07
631 1 1.25855322425781242e-07
632 1 1.25825139566097058e-07
633 1 1.25804447890804658e-07
634 1 1.25769286234524336e-07
635 1 1.25773366398437471e-07
636 1 1.25783485580047151e-07
637 1 1.25785074402343709e-07
638 1 1.25775911533256311e-07
639 1 1.25813214290759860e-07
640 1 1.25743065000000014e-07
641 1 1.25822470110805155e-07
642 1 1.25855751946207782e-07
643 1 1.25866999015826223e-07
644 1 1.25717717982552733e-07
645 1 1.25750983257829725e-07
646 1 1.25751643834146058e-07
647 1 1.25984110468749992e-07
648 1 1.25895340519648856e-07
649 1 1.25953233189492481e-07
650 1 1.25915566533574576e-07
651 1 1.25700012500000013e-07
652 1 1.25719778356505241e-07
653 1 1.25776286771943271e-07
654 1 1.25790299626981877e-07
655 1 1.25864137289619241e-07
656 1 1.25979644581573033e-07
657 1 1.25915275000000018e-07
658 1 1.34033772134378324e-07
659 1 1.33829387134350173e-07
660 1 1.03508729729331314e-07
661 1 1.26827086749999998e-07
662 1 1.23885822328155272e-07
663 1 1.33012726024103209e-07
664 1 1.23979740874623125e-07
665 1 1.24006068156406580e-07
666 1 1.33346823797919068e-07
667 1 1.33749662138112515e-07
668 1 1.34238205930465471e-07
669 1 1.26400701008574033e-07
670 1 1.26452430624999987e-07
671 1 1.05975065588083175e-07
672 1 1.04729711962682997e-07
673 1 1.04103404337831467e-07
674 1 1.03782838574423829e-07
675 1 1.04036932930545974e-07
676 1 1.03987780518528411e-07
677 1 1.03849309981684956e-07
678 1 1.03733686162398100e-07
679 1 1.32592252578725588e-07
680 1 1.20357343264425075e-07
681 1 1.22137320827715858e-07
682 1 1.23030407054316522e-07
683 1 1.23483221161402342e-07
684 1 1.34700552485771383e-07
685 1 1.36588882967416236e-07
686 1 1.37536250255491026e-07
687 1 1.38016414641398497e-07
688 1 1.35787065000000021e-07
689 1 1.36038765500000014e-07
690 1 1.79659355863006505e-07
691 1 1.79920825000000014e-07
692 1 1.80044160141348801e-07
693 1 1.80187492500000037e-07
694 1 1.23428677306797033e-07
695 1 1.03120839999999989e-07
696 1 1.04567958125651958e-07
697 1 1.24478652546295402e-07
698 1 1.24456588263082691e-07
699 1 8.51255629115102368e-08
700 1 8.56213575786898068e-08
701 1 1.21970069643367831e-07
702 1 1.35178423290643547e-07
703 1 1.35590770460469714e-07
704 1 1.61469424370839128e-07
705 1 1.59571343387623525e-07
706 1 1.58619343901066369e-07
707 1 1.58137361094685546e-07
708 1 1.64359035397828258e-07
709 1 1.65085310902678312e-07
710 1 1.61450888469921384e-07
711 1 1.60349846204533549e-07
712 1 1.59793098913665977e-07
713 1 1.26600587248475415e-07
714 1 1.26975673754638425e-07
715 1 1.27163546967643643e-07
716 1 1.27258147575110931e-07
717 1 9.18849084216884465e-08
718 1 9.17958354999999958e-08
719 1 1.63037977087765428e-07
720 1 1.64336699423612709e-07
721 1 1.64988390803237486e-07
722 1 1.65318955964288640e-07
723 1 1.35233867299785711e-07
724 1 1.35662312500000009e-07
725 1 1.79483584088591302e-07
726 1 1.79674513110168791e-07
727 1 1.23150536620161684e-07
728 1 1.30789686218055286e-07
729 1 1.31603836662822769e-07
730 1 1.32016718712309412e-07
731 1 1.26763518267804033e-07
732 1 1.26713043938182297e-07
733 1 1.30216770274839130e-07
734 1 7.64618709850346304e-08
735 1 1.03541732012439363e-07
736 1 1.03960612505594280e-07
737 1 1.53747616985918866e-07
738 1 1.53245022773846515e-07
739 1 1.53529171499999985e-07
740 1 1.58988416740019143e-07
741 1 1.58802781000000022e-07
742 1 1.58636568870036629e-07
743 1 1.58543751000000017e-07
744 1 1.58414236000000014e-07
745 1 1.58673266000000019e-07
746 1 1.58495466014467389e-07
747 1 1.58405561499999993e-07
748 1 1.58995833500000008e-07
749 1 1.58831428313488606e-07
750 1 1.58761117750000005e-07
751 1 1.59154628870042914e-07
752 1 1.59061811000000028e-07
753 1 1.58932296000000025e-07
754 1 1.59191326000000030e-07
755 1 1.59424913836948612e-07
756 1 1.59692735966294939e-07
757 1 1.59377986149856952e-07
758 1 1.59931383146855122e-07
759 1 1.59241009712138076e-07
760 1 1.59751366302928433e-07
761 1 1.56828890763108452e-07
762 1 1.64779217769784352e-07
763 1 6.87589484669035100e-08
764 1 6.90386626675982075e-08
765 1 6.83714129999999999e-08
766 1 1.38505963737544629e-07
767 1 1.38684177499999982e-07
768 1 1.37898860000000005e-07
769 1 1.57556225141693452e-07
770 1 1.57692945517116493e-07
771 1 1.60563590765616858e-07
772 1 1.59879487262064680e-07
773 1 1.60434722999999995e-07
774 1 1.53112361427143350e-07
775 1 1.53312485041402046e-07
776 1 7.61616576249315023e-08
777 1 1.78474220720555752e-07
778 1 1.79582893364831129e-07
779 1 1.79203837689927432e-07
780 1 9.21573221794548745e-08
781 1 9.21422977967063367e-08
782 1 8.54780658067783057e-08
783 1 8.54237513967438081e-08
784 1 1.38025976634607394e-07
785 1 1.38823605000000023e-07
786 1 1.37861544983418097e-07
787 1 1.37619005694816390e-07
788 1 1.37940278000000006e-07
789 1 1.38003673611721716e-07
790 1 1.38194444000000022e-07
791 1 1.38226141805827433e-07
792 1 1.38321527000000017e-07
793 1 1.38337375902850950e-07
794 1 1.38385068500000015e-07
795 1 1.38392992951397529e-07
796 1 1.38416839250000014e-07
797 1 1.38432724625000026e-07
798 1 1.38400953875000001e-07
799 1 1.38389257553202553e-07
800 1 1.38353297750000016e-07
801 1 1.38320838002235141e-07
802 1 1.38470831000000019e-07
803 1 1.38459720500000029e-07
804 1 1.38339928135970662e-07
805 1 1.38225710281848244e-07
806 1 1.38193800466726313e-07
807 1 1.37979672762208735e-07
808 1 1.38257985500000020e-07
809 1 1.38200129531055642e-07
810 1 1.38039208045157070e-07
811 1 1.37971975805852430e-07
812 1 1.38067361000000027e-07
813 1 1.38130902500000025e-07
814 1 1.37956126902892681e-07
815 1 1.38003819500000030e-07
816 1 1.38035590250000028e-07
817 1 1.37972048750000004e-07
818 1 1.37853343856166382e-07
819 1 1.37830693191399095e-07
820 1 1.37819275955102880e-07
821 1 1.37686111999999989e-07
822 1 1.37683943203834147e-07
823 1 1.37813194999999984e-07
824 1 1.37794511939996134e-07
825 1 1.37876736499999982e-07
826 1 1.36514967330197810e-07
827 1 1.37107293490940338e-07
828 1 1.37120900192421754e-07
829 1 1.38360437555589715e-07
830 1 1.38658328500000024e-07
831 1 1.36908335499999997e-07
832 1 7.73213902747670655e-08
833 1 1.49542838535755538e-07
834 1 1.50328699848267249e-07
835 1 1.50722992791692834e-07
836 1 1.50922897179670330e-07
837 1 1.34916374652395492e-07
838 1 1.36445117000000003e-07
839 1 7.09510613853186965e-08
840 1 1.04609731103430517e-07
841 1 1.26176841833933303e-07
842 1 1.26655973017321163e-07
843 1 1.05795130350566618e-07
844 1 1.05311092840545732e-07
845 1 1.10829804645709942e-07
846 1 1.30721021195468172e-07
847 1 1.73658334500000001e-07
848 1 1.72960417249999987e-07
849 1 1.80564982466895483e-07
850 1 1.69000224594054365e-07
851 1 1.69697491080670195e-07
852 1 1.26270988916184653e-07
853 1 1.25852785000000023e-07
854 1 1.55881482695969114e-07
855 1 1.56193353431488997e-07
856 1 1.56352668322069227e-07
857 1 6.70182584999999831e-08
858 1 7.32923261472586732e-08
859 1 1.23220275810243851e-07
860 1 1.23203112437277798e-07
861 1 1.23369993466633230e-07
862 1 1.23455301928041427e-07
863 1 1.21571272488008958e-07
864 1 1.22394513378257001e-07
865 1 1.28091482280279900e-07
866 1 1.28067452447552387e-07
867 1 1.81599018831993000e-07
868 1 1.81279163499999976e-07
869 1 1.81552048072216228e-07
870 1 1.80931921132887690e-07
871 1 1.36925001499999996e-07
872 1 1.36718147326886423e-07
873 1 1.36963932544333971e-07
874 1 8.27144340207780041e-08
875 1 8.14285756831880300e-08
876 1 8.07760729738729593e-08
877 1 7.06010428179880467e-08
878 1 6.99133265500812782e-08
879 1 1.63425437369347227e-07
880 1 1.64238849474805034e-07
881 1 1.64653065536584635e-07
882 1 1.61753109575363889e-07
883 1 1.63355135077807265e-07
884 1 1.64065391367465282e-07
885 1 1.60222289047751171e-07
886 1 1.61144189306203179e-07
887 1 1.32815935192709543e-07
888 1 1.33869337642621342e-07
889 1 1.60662627970297004e-07
890 1 1.61556316150132992e-07
891 1 1.62010215313883085e-07
892 1 1.59815529556957083e-07
893 1 1.57495692675508607e-07
894 1 1.57005204499999996e-07
895 1 1.59391159980408895e-07
896 1 1.59716855342978785e-07
897 1 1.59342326235996313e-07
898 1 1.58630823164188978e-07
899 1 1.34773842133732337e-07
900 1 1.34858330000000008e-07
901 1 1.22988331972905377e-07
902 1 1.23355302623883751e-07
903 1 1.05427414954134203e-07
904 1 1.05135391178109175e-07
905 1 1.04708535749990257e-07
906 1 1.03817193441324158e-07
907 1 1.08054839835295567e-07
908 1 1.04766424608423650e-07
909 1 1.03120548995361640e-07
910 1 1.02294263315326230e-07
911 1 1.01874328438417849e-07
912 1 1.03128115304656723e-07
913 1 7.95581866132024908e-08
914 1 7.79856374286906152e-08
915 1 7.71965396075986715e-08
916 1 7.67962726548355489e-08
917 1 1.40380198139030156e-07
918 1 1.38860733985885522e-07
919 1 1.38097316787081441e-07
920 1 1.37708111327617478e-07
921 1 1.20632858426808633e-07
922 1 1.21230074909324767e-07
923 1 1.01856300260202485e-07
924 1 1.20233742899050174e-07
925 1 9.85724490000000050e-08
926 1 9.92760409923351574e-08
927 1 1.19764459324327814e-07
928 1 1.21174162871389356e-07
929 1 1.21894187590777935e-07
930 1 9.06586046095769592e-08
931 1 9.01962804999999810e-08
932 1 1.70695000050837575e-07
933 1 1.45627259711740925e-07
934 1 1.50790707713445726e-07
935 1 1.46799030933704475e-07
936 1 9.97030574460026816e-08
937 1 9.98122112598435082e-08
938 1 1.22501573601644280e-07
939 1 1.22883768500000011e-07
940 1 1.21668862840106869e-07
941 1 1.51961235475943577e-07
942 1 1.50913132094970868e-07
943 1 1.68952152968698204e-07
944 1 1.69107649200710021e-07
945 1 9.26221059392089032e-08
946 1 9.16484604189466404e-08
947 1 1.21082803859012772e-07
948 1 9.84098357366961619e-08
949 1 9.90188597902768159e-08
950 1 9.81696693859900440e-08
951 1 9.93286501761775225e-08
952 1 1.45054186090076669e-07
953 1 1.46277520734823277e-07
954 1 1.46895751426144305e-07
955 1 1.02897363207646704e-07
956 1 1.03773259922768597e-07
957 1 1.14125772039037451e-07
958 1 1.18002044392446697e-07
959 1 1.19948313012471508e-07
960 1 1.20937953534985965e-07
961 1 7.88539152836154384e-08
962 1 7.56478090665408558e-08
963 1 7.46149279565781665e-08
964 1 7.40875973965185048e-08
965 1 7.86181401359963025e-08
966 1 7.84991498370416558e-08
967 1 1.33918866616812423e-07
968 1 1.35289494181618111e-07
969 1 1.22329201475293954e-07
970 1 1.24263770720283989e-07
971 1 7.22327622171531411e-08
972 1 1.57828198830321364e-07
973 1 1.57016534670794626e-07
974 1 1.55465430610336811e-07
975 1 1.55502773999999987e-07
976 1 1.56158627570112637e-07
977 1 1.57699639706158957e-07
978 1 1.58486645620137826e-07
979 1 1.26243638806756993e-07
980 1 1.26060461185391726e-07
981 1 1.69867847418621891e-07
982 1 1.73754142752242596e-07
983 1 1.10181646711761296e-07
984 1 1.05461324911163087e-07
985 1 1.35983991000000002e-07
986 1 8.37775886110816481e-08
987 1 8.45549124301967877e-08
988 1 9.12570246445882237e-08
989 1 1.78279739675780738e-07
990 1 1.80559497019751192e-07
991 1 1.54635588945331594e-07
992 1 1.55233217586057931e-07
993 1 1.54071730251375428e-07
994 1 1.29849588939608463e-07
995 1 1.31145424066531186e-07
996 1 1.32810360736211410e-07
997 1 1.22272855274648556e-07
998 1 1.66952007796844707e-07
999 1 1.68194425000000037e-07
1000 1 1.66026605317092135e-07
1001 1 1.64275144701158177e-07
1002 1 1.28166753794103436e-07
1003 1 1.28291773499999994e-07
1004 1 1.25426642728343674e-07
1005 1 1.26310940666853653e-07
1006 1 1.22395214660927196e-07
1007 1 1.23811977712689756e-07
1008 1 1.33354111685105549e-07
1009 1 1.60312932757984485e-07
1010 1 1.22579632717485391e-07
1011 1 8.00050578462288506e-08
1012 1 8.11578129017597567e-08
1013 1 8.07953972693438915e-08
1014 1 7.20419203032700933e-08
1015 1 1.62971629638251518e-07
1016 1 1.62408336513325215e-07
1017 1 1.34995558919980045e-07
1018 1 1.42230392068633614e-07
1019 1 1.40641856507565598e-07
1020 1 1.39830120281896020e-07
1021 1 1.63586488845885102e-07
1022 1 1.62763733955748195e-07
1023 1 1.64948858936486394e-07
1024 1 1.65619440000000004e-07
1025 1 9.76082033810437450e-08
1026 1 1.63332317400753609e-07
1027 1 1.62534282388423113e-07
1028 1 1.61570224987127249e-07
1029 1 1.39471735047139777e-07
1030 1 1.40607364419417582e-07
1031 1 1.61824566006481915e-07
1032 1 7.41266622365551701e-08
1033 1 7.29908385547587921e-08
1034 1 7.37320368202407786e-08
1035 1 7.26923160843568002e-08
1036 1 7.86356938263724521e-08
1037 1 7.84061202422817235e-08
1038 1 7.76786437458371193e-08
1039 1 1.29087186815996372e-07
1040 1 1.28837618074486379e-07
1041 1 1.30388393000000012e-07
1042 1 1.68468442691523560e-07
1043 1 1.69167612723876863e-07
1044 1 1.58049961280657306e-07
1045 1 1.56476247766105673e-07
1046 1 1.56746455399836240e-07
1047 1 1.55673127144932662e-07
1048 1 8.36154297642827706e-08
1049 1 8.24534150487207136e-08
1050 1 1.57481235412385148e-07
1051 1 1.57157096259744413e-07
1052 1 1.53816199353797416e-07
1053 1 1.54496962209503069e-07
1054 1 1.52333338244020637e-07
1055 1 1.53071571999999965e-07
1056 1 8.00464325504188634e-08
1057 1 1.19944690566415346e-07
1058 1 1.01746352681352743e-07
1059 1 1.00862844736016347e-07
1060 1 1.00578785169879000e-07
1061 1 1.21622133466047012e-07
1062 1 1.70016199898772432e-07
1063 1 1.19917431383510872e-07
1064 1 1.45571951650783840e-07
1065 1 1.45390087608521815e-07
1066 1 1.21987289495226900e-07
1067 1 1.36728705381829186e-07
1068 1 7.46021375268274039e-08
1069 1 7.34500832930990052e-08
1070 1 7.20971557000445208e-08
1071 1 7.58342224634717198e-08
1072 1 7.32105922681241719e-08
1073 1 1.03107950541527172e-07
1074 1 1.07704095606036811e-07
1075 1 1.06675028724023914e-07
1076 1 1.58411111500000009e-07
1077 1 1.60914556577117520e-07
1078 1 1.59688295482069722e-07
1079 1 1.63479316184672994e-07
1080 1 1.65465671483956806e-07
1081 1 7.10922265928061575e-08
1082 1 1.30739567755895467e-07
1083 1 1.31563976004681066e-07
1084 1 1.06979412090426174e-07
1085 1 1.06654723028865055e-07
1086 1 1.06022288432440317e-07
1087 1 1.49245314169724265e-07
1088 1 9.39708686371568697e-08
1089 1 1.38100989753424279e-07
1090 1 6.95838785926390593e-08
1091 1 6.89981839999999993e-08
1092 1 1.07700687862368620e-07
1093 1 1.06184056849765513e-07
1094 1 1.07901875250821615e-07
1095 1 8.79023620798883937e-08
1096 1 7.05317711301408310e-08
1097 1 1.12452396395665051e-07
1098 1 1.19827397638929303e-07
1099 1 1.18445142340977585e-07
1100 1 1.18616246479409267e-07
1101 1 1.41380333002707570e-07
1102 1 1.16292888368300128e-07
1103 1 1.15636237052228928e-07
1104 1 1.05504669233365009e-07
1105 1 1.08510179799577593e-07
1106 1 1.29476081785002015e-07
1107 1 1.60099646296422565e-07
1108 1 1.54345610753529072e-07
1109 1 1.57051134016401050e-07
1110 1 1.58518398132865831e-07
1111 1 1.68284354024378628e-07
1112 1 1.70604958778160081e-07
1113 1 1.63836661390884292e-07
1114 1 1.20863670575990064e-07
1115 1 1.62913077851082465e-07
1116 1 1.65802668494693823e-07
1117 1 1.73008731775445125e-07
1118 1 1.24791978523990168e-07
1119 1 1.23986513610030208e-07
1120 1 1.22750118985928340e-07
1121 1 1.59185825718074835e-07
1122 1 7.34169352106599699e-08
1123 1 7.23949629611618376e-08
1124 1 1.24138395930333079e-07
1125 1 7.53876315749911486e-08
1126 1 9.31662512137374741e-08
1127 1 9.26373891203681125e-08
1128 1 1.67917788470848047e-07
1129 1 1.50555236726650186e-07
1130 1 1.52071406729914869e-07
1131 1 1.37629538664013732e-07
1132 1 1.39381337852236139e-07
1133 1 1.40276309913918203e-07
1134 1 1.24201583912586348e-07
1135 1 1.22048594874366852e-07
1136 1 1.60602780978726528e-07
1137 1 6.95010426736988132e-08
1138 1 1.83027535311677469e-07
1139 1 1.21321799935330697e-07
1140 1 1.27967740003856920e-07
1141 1 1.64023845218855215e-07
1142 1 1.65163481829045520e-07
1143 1 1.33372291275833270e-07
1144 1 9.42017669753572313e-08
1145 1 1.13032791041969993e-07
1146 1 1.15592642549407255e-07
1147 1 1.15105551888744871e-07
1148 1 1.11627164539113519e-07
1149 1 1.13376783241451470e-07
1150 1 1.13524054869191781e-07
1151 1 1.13354120499999984e-07
1152 1 1.16610858592833925e-07
1153 1 9.62874469715788293e-08
1154 1 9.70331113081396791e-08
1155 1 9.76706012794182196e-08
1156 1 1.65634884055765516e-07
1157 1 1.65949204190036022e-07
1158 1 1.17678406877248181e-07
1159 1 1.20119735016388934e-07
1160 1 1.21362077222554479e-07
1161 1 1.23920920257985499e-07
1162 1 1.23619170656974078e-07
1163 1 1.41136149631245572e-07
1164 1 1.38495309056216021e-07
1165 1 1.53360155167810751e-07
1166 1 1.65979490839256481e-07
1167 1 8.90187259402196273e-08
1168 1 8.93671892323895965e-08
1169 1 8.78759940912472366e-08
1170 1 8.95443692016531729e-08
1171 1 8.93465612261195828e-08
1172 1 8.52951289112805269e-08
1173 1 8.61129361706042984e-08
1174 1 9.05495189102051661e-08
1175 1 8.90722175000000132e-08
1176 1 9.00345083307684708e-08
1177 1 8.84878006636818335e-08
1178 1 1.72913972061247669e-07
1179 1 1.71861618773008936e-07
1180 1 1.71397179058095022e-07
1181 1 1.74337862210018310e-07
1182 1 1.20402668473089060e-07
1183 1 1.12389728285365554e-07
1184 1 8.67197282013344551e-08
1185 1 7.08139921728846643e-08
1186 1 1.47759399800429550e-07
1187 1 1.34369158456750070e-07
1188 1 1.33698253663195142e-07
1189 1 1.32195203114355690e-07
1190 1 7.21631717602551305e-08
1191 1 1.67124219323827904e-07
1192 1 1.35186284713149651e-07
1193 1 1.19839887496730064e-07
1194 1 1.20952875022637360e-07
1195 1 7.84013939999999883e-08
1196 1 7.88353085863672892e-08
1197 1 7.38408644463907727e-08
1198 1 1.62646391639594315e-07
1199 1 1.64702014321872929e-07
1200 1 1.67014567500000010e-07
1201 1 1.81015042561559342e-07
1202 1 1.82383997512658343e-07
1203 1 1.83125009500000028e-07
1204 1 1.44775755984587270e-07
1205 1 1.45963812140450770e-07
1206 1 1.18901401651983679e-07
1207 1 1.82879205930558504e-07
1208 1 1.77136427821721531e-07
1209 1 7.04412131063858099e-08
1210 1 1.23362407915552073e-07
1211 1 8.23522048348169263e-08
1212 1 8.28394012604398973e-08
1213 1 8.10873317381370943e-08
1214 1 8.37982429141422937e-08
1215 1 8.34941470464627187e-08
1216 1 8.32607132197173932e-08
1217 1 8.16172994992684912e-08
1218 1 8.46945579835525158e-08
1219 1 8.46643309060041906e-08
1220 1 8.35828161961005241e-08
1221 1 8.56529750580506434e-08
1222 1 1.24572994988081183e-07
1223 1 7.12149719322597018e-08
1224 1 1.75722487413208040e-07
1225 1 1.75860295619134470e-07
1226 1 1.74799864826586088e-07
1227 1 1.74668904217294930e-07
1228 1 1.75829182000000004e-07
1229 1 1.76163246684890598e-07
1230 1 1.77172191288307593e-07
1231 1 1.74716178323951957e-07
1232 1 1.75794438999999970e-07
1233 1 1.18008486563333049e-07
1234 1 1.16812199048834978e-07
1235 1 1.16753648261149292e-07
1236 1 1.16077526107038088e-07
1237 1 1.18826490585415174e-07
1238 1 1.19301361256641960e-07
1239 1 1.18119214642171050e-07
1240 1 1.43125059958538279e-07
1241 1 1.43963009352902920e-07
1242 1 1.42670055824816551e-07
1243 1 7.64591761024383910e-08
1244 1 7.51163410508126085e-08
1245 1 7.54223946564335523e-08
1246 1 7.72276924646233030e-08
1247 1 7.54476553138536798e-08
1248 1 1.21887501898042518e-07
1249 1 1.20643717967452482e-07
1250 1 1.21619926083954434e-07
1251 1 1.22134839509088453e-07
1252 1 1.23498859547317331e-07
1253 1 1.24437521545444380e-07
1254 1 1.20578468310134986e-07
1255 1 1.19935003487775999e-07
1256 1 1.26721417360100352e-07
1257 1 1.25289236601972962e-07
1258 1 1.22161835736850044e-07
1259 1 1.21611903343204895e-07
1260 1 1.18908267890429169e-07
1261 1 1.20512647031863108e-07
1262 1 1.22851453780309113e-07
1263 1 1.24544569359863145e-07
1264 1 1.24135894605127438e-07
1265 1 1.23338902311499098e-07
1266 1 1.23495057909581543e-07
1267 1 1.25866255608372516e-07
1268 1 1.36194879431955139e-07
1269 1 1.36061033628966701e-07
1270 1 1.34973478618915950e-07
1271 1 1.37425637973179482e-07
1272 1 1.37933900648236039e-07
1273 1 1.38050235916833783e-07
1274 1 1.39428113772727415e-07
1275 1 1.42204284399200347e-07
1276 1 1.40970817518425321e-07
1277 1 1.43011380819851830e-07
1278 1 1.42304156047695669e-07
1279 1 1.41689326752183876e-07
1280 1 1.42286725066826734e-07
1281 1 1.43716289796610456e-07
1282 1 1.43887212359796115e-07
1283 1 1.44656992886700606e-07
1284 1 1.40611533279619514e-07
1285 1 7.27666729265771566e-08
1286 1 7.13698927110113427e-08
1287 1 1.33168636662603510e-07
1288 1 1.31057225584380077e-07
1289 1 1.32732752637141652e-07
1290 1 1.31961520793071026e-07
1291 1 1.30649503066586893e-07
1292 1 1.29554263493560299e-07
1293 1 1.29903490212769223e-07
1294 1 1.30112072750876752e-07
1295 1 1.30224393382670174e-07
1296 1 1.28805490810654945e-07
1297 1 1.31417149449585371e-07
1298 1 1.32884492055656707e-07
1299 1 1.32457230594526649e-07
1300 1 1.31409555477666771e-07
1301 1 1.31053333156619455e-07
1302 1 1.31197201214038153e-07
1303 1 1.31690178694164855e-07
1304 1 1.30796834453464604e-07
1305 1 1.30138126027067392e-07
1306 1 1.31956162515095213e-07
1307 1 1.33128734531657926e-07
1308 1 1.35164760299014498e-07
1309 1 1.33813567301020634e-07
1310 1 1.34061756594293180e-07
1311 1 1.35696431135096251e-07
1312 1 1.34919972412136716e-07
1313 1 1.36799958628460265e-07
1314 1 1.35883920314895247e-07
1315 1 1.36903770012830728e-07
1316 1 1.35167913643213486e-07
1317 1 1.33978876667735672e-07
1318 1 1.34943984291057635e-07
1319 1 1.32777509262785161e-07
1320 1 1.48395530225662220e-07
1321 1 8.65416828250485573e-08
1322 1 1.67038959085648135e-07
1323 1 1.67855418985971971e-07
1324 1 1.68338375214880948e-07
1325 1 1.67192934885706598e-07
1326 1 1.65090135775269422e-07
1327 1 1.65966658094993154e-07
1328 1 1.64697373456082070e-07
1329 1 1.64487991525773657e-07
1330 1 1.63874467062498752e-07
1331 1 1.65755736987407867e-07
1332 1 9.65691463217647048e-08
1333 1 1.14291181827892036e-07
1334 1 1.14158547875754731e-07
1335 1 1.12089251264147333e-07
1336 1 1.31435959003336009e-07
1337 1 1.32609234517456790e-07
1338 1 1.32976928401687737e-07
1339 1 1.31508043161173336e-07
1340 1 1.59336600770507912e-07
1341 1 1.49668895891791735e-07
1342 1 1.48022273727024483e-07
1343 1 1.46720920395737798e-07
1344 1 1.47619301405461384e-07
1345 1 1.47955517802458129e-07
1346 1 1.46763192598078036e-07
1347 1 1.45051816399899807e-07
1348 1 1.46181345140936129e-07
1349 1 1.47225232167918582e-07
1350 1 1.47221002251709577e-07
1351 1 1.46146710504082382e-07
1352 1 1.44877369429497925e-07
1353 1 1.43298248282276367e-07
1354 1 1.48312172679090851e-07
1355 1 1.48587688951963190e-07
1356 1 1.50714727114363026e-07
1357 1 1.49838070614215126e-07
1358 1 1.48614181248862679e-07
1359 1 1.52292145316327916e-07
1360 1 1.51220816748836969e-07
1361 1 1.53606575781844366e-07
1362 1 1.52204104778659612e-07
1363 1 1.53383464950120252e-07
1364 1 1.55223890201710215e-07
1365 1 1.52084104503933365e-07
1366 1 1.51597749171776926e-07
1367 1 1.52784901392179867e-07
1368 1 1.55657184329832599e-07
1369 1 1.53849456442175607e-07
1370 1 1.50857588902416462e-07
1371 1 1.51218295370393117e-07
1372 1 1.49928085411340383e-07
1373 1 1.52139809713898644e-07
1374 1 1.49313873142035274e-07
1375 1 1.50219318453089695e-07
1376 1 1.48942772668490425e-07
1377 1 7.69348342841546064e-08
1378 1 1.67321387793230282e-07
1379 1 1.64595994861868708e-07
1380 1 1.19319005957810407e-07
1381 1 1.20225177719591162e-07
1382 1 1.58755974725677168e-07
1383 1 1.18067802682772393e-07
1384 1 1.18662162559321623e-07
1385 1 1.17152395878962985e-07
1386 1 1.20072966774298097e-07
1387 1 1.16834519921057727e-07
1388 1 7.21466527869822676e-08
1389 1 1.09561554863007574e-07
1390 1 7.13121773232020345e-08
1391 1 1.06385913193137646e-07
1392 1 1.08534336128761196e-07
1393 1 1.07356918690739162e-07
1394 1 1.07264533443774909e-07
1395 1 1.08719790421050684e-07
1396 1 7.46315889901822074e-08
1397 1 7.48755595000000051e-08
1398 1 7.60493857478853471e-08
1399 1 1.43879161499999965e-07
1400 1 1.44151908578436540e-07
1401 1 1.21014889962987678e-07
1402 1 1.19897014169662423e-07
1403 1 1.01963153411828422e-07
1404 1 1.03141911900257010e-07
1405 1 1.03623529802802039e-07
1406 1 1.03024955261914730e-07
1407 1 1.02716520937836175e-07
1408 1 1.00833956190422894e-07
1409 1 1.01971611093563762e-07
1410 1 1.00461190594716089e-07
1411 1 1.01745129314662649e-07
1412 1 1.05856105553137663e-07
1413 1 1.04301840111451793e-07
1414 1 1.05290628872764273e-07
1415 1 1.04839469200387373e-07
1416 1 1.06720150654389750e-07
1417 1 1.04036833281844043e-07
1418 1 1.30821230938487668e-07
1419 1 1.31630185699228111e-07
1420 1 1.32568374800795754e-07
1421 1 1.33248101212731503e-07
1422 1 1.30124255117041510e-07
1423 1 1.28658145713076576e-07
1424 1 1.28772121924643875e-07
1425 1 1.29688252201894569e-07
1426 1 1.29903974132452562e-07
1427 1 1.27945792914604008e-07
1428 1 1.63733113017838713e-07
1429 1 1.61307314532308833e-07
1430 1 1.61623011258112728e-07
1431 1 1.31932405681291767e-07
1432 1 1.31275701951115712e-07
1433 1 1.28908592529308145e-07
1434 1 1.30126435901050832e-07
1435 1 1.30036250719136604e-07
1436 1 1.28904412611050931e-07
1437 1 1.28806630374278638e-07
1438 1 1.29731352456222869e-07
1439 1 1.30370636365363532e-07
1440 1 1.27347434310385451e-07
1441 1 1.35284170839704700e-07
1442 1 1.33486820632028157e-07
1443 1 1.02481034127653510e-07
1444 1 1.31469384900293546e-07
1445 1 1.32865398053195555e-07
1446 1 1.33658718479973472e-07
1447 1 1.27218889402771277e-07
1448 1 1.29005399495377797e-07
1449 1 1.29965420909135022e-07
1450 1 1.28499356225475762e-07
1451 1 1.30471464179030386e-07
1452 1 1.28966187461184487e-07
1453 1 1.30292630939033400e-07
1454 1 1.28691574874094156e-07
1455 1 1.30060714435192066e-07
1456 1 1.28624032698050874e-07
1457 1 1.25511389424702955e-07
1458 1 1.27179965586203005e-07
1459 1 1.27367146966777868e-07
1460 1 1.25536982257391166e-07
1461 1 1.26427066911936925e-07
1462 1 1.27521935172076885e-07
1463 1 1.27736305254422804e-07
1464 1 1.28719359397639704e-07
1465 1 1.29375316858541518e-07
1466 1 1.31438314971840065e-07
1467 1 1.30393701607018270e-07
1468 1 1.31326866597214435e-07
1469 1 1.30465056792645903e-07
1470 1 1.31771073810969510e-07
1471 1 1.32579406515372011e-07
1472 1 1.31169760916536294e-07
1473 1 1.33492305419115115e-07
1474 1 1.31658917159603577e-07
1475 1 1.26378246312813861e-07
1476 1 1.25149550354299708e-07
1477 1 1.25242197690892354e-07
1478 1 1.21368456861354784e-07
1479 1 1.23404879632009528e-07
1480 1 1.23240679332798833e-07
1481 1 1.24388822416022011e-07
1482 1 1.23892715589130216e-07
1483 1 1.20809248022985701e-07
1484 1 1.22269598416917339e-07
1485 1 1.21164055683235648e-07
1486 1 1.21100574482345648e-07
1487 1 1.18500781007372862e-07
1488 1 1.19592021101431957e-07
1489 1 1.19834514816258041e-07
1490 1 1.18697550452860412e-07
1491 1 1.18948797714314630e-07
1492 1 1.20030776696510672e-07
1493 1 1.20045633858099572e-07
1494 1 1.19662936520155955e-07
1495 1 1.18211611324781355e-07
1496 1 1.16237315009410829e-07
1497 1 1.17566765119814800e-07
1498 1 1.16185149700770530e-07
1499 1 1.17258391862192235e-07
1500 1 1.17276489945473367e-07
1501 1 1.18489988118638340e-07
1502 1 1.19414092546455447e-07
1503 1 1.15963593524168669e-07
1504 1 1.19706327752919641e-07
1505 1 1.12462139600263563e-07
1506 1 1.10598138095107579e-07
1507 1 1.09412252733458973e-07
1508 1 1.09867979430306956e-07
1509 1 1.10142411398272486e-07
1510 1 1.11273270503719912e-07
1511 1 1.11628735553408465e-07
1512 1 1.12010640418732512e-07
1513 1 1.13986335631313161e-07
1514 1 1.15004223035084227e-07
1515 1 1.14660824932317591e-07
1516 1 1.16677227600910699e-07
1517 1 1.16753564056058977e-07
1518 1 1.14928030312629496e-07
1519 1 1.15767162720360916e-07
1520 1 1.12086749042158463e-07
1521 1 1.14523429758339631e-07
1522 1 1.15439838627655796e-07
1523 1 1.13798553851684169e-07
1524 1 1.16536981065387003e-07
1525 1 1.16278879537487089e-07
1526 1 1.18522690590199901e-07
1527 1 1.19867842320248924e-07
1528 1 1.19686054675384355e-07
1529 1 1.18252789667226126e-07
1530 1 1.20892003064057269e-07
1531 1 1.13287743155179317e-07
1532 1 1.11991146766539446e-07
1533 1 1.13347202353213871e-07
1534 1 1.14949709558100715e-07
1535 1 1.12919029141799926e-07
1536 1 1.13543611517924509e-07
1537 1 1.10466943163552716e-07
1538 1 1.11669362564282002e-07
1539 1 1.09559999139154721e-07
1540 1 1.10231560948984317e-07
1541 1 1.10855313322761249e-07
1542 1 1.10373514433804301e-07
1543 1 1.08062709165551090e-07
1544 1 1.09256050066612608e-07
1545 1 1.07848670483860460e-07
1546 1 1.09008913762143672e-07
1547 1 1.09477711539754295e-07
1548 1 1.08474929428344340e-07
1549 1 1.10851476517006211e-07
1550 1 1.12164742871435744e-07
1551 1 1.11109740059767164e-07
1552 1 1.13031802413883485e-07
1553 1 1.08143578329705110e-07
1554 1 1.13698300388622495e-07
1555 1 1.11413875668498430e-07
1556 1 1.12166352594431887e-07
1557 1 1.13720326175821428e-07
1558 1 1.12737573602826982e-07
1559 1 1.16195501273469345e-07
1560 1 1.16022339395506170e-07
1561 1 1.14971566463539342e-07
1562 1 1.17328822354296644e-07
1563 1 1.17926075667154371e-07
1564 1 1.19063845307380640e-07
1565 1 1.19335839950936946e-07
1566 1 1.20541406197206804e-07
1567 1 1.19997043835499333e-07
1568 1 1.20888086001842123e-07
1569 1 1.18012149900598632e-07
1570 1 1.10712876133176813e-07
1571 1 1.12039763817246335e-07
1572 1 1.10717646235048915e-07
1573 1 1.09100568320933531e-07
1574 1 1.09389000704904989e-07
1575 1 1.08537231141851184e-07
1576 1 1.09269687629684996e-07
1577 1 1.06823566987232284e-07
1578 1 1.07860536025504440e-07
1579 1 1.08103375675028728e-07
1580 1 1.05859660099542988e-07
1581 1 1.07195730486538202e-07
1582 1 1.06645331968746099e-07
1583 1 1.04824618850825357e-07
1584 1 1.06256622067130936e-07
1585 1 1.07743713820551805e-07
1586 1 1.06404820547749156e-07
1587 1 1.04672791743815679e-07
1588 1 1.04731305097506311e-07
1589 1 1.01469129312866335e-07
1590 1 1.02899196251950953e-07
1591 1 1.01940650488688221e-07
1592 1 1.00404276777294063e-07
1593 1 9.65549293198825622e-08
1594 1 9.80189613821162857e-08
1595 1 9.77350814725982584e-08
1596 1 1.00906360456449789e-07
1597 1 9.92766842375297318e-08
1598 1 9.89099611127658878e-08
1599 1 1.00031324476492576e-07
1600 1 1.00066140112899667e-07
1601 1 1.01447956934381680e-07
1602 1 1.02880489671309509e-07
1603 1 1.01553242168583486e-07
1604 1 9.92301715743271503e-08
1605 1 1.01055229853150442e-07
1606 1 9.97700876076524604e-08
1607 1 1.00348978200602264e-07
1608 1 1.01927758147257254e-07
1609 1 1.03468638760531410e-07
1610 1 1.02528287105106292e-07
1611 1 1.05881150733184184e-07
1612 1 1.04948278118788414e-07
1613 1 1.08378373880780602e-07
1614 1 1.06810735594146292e-07
1615 1 1.05788580101280253e-07
1616 1 1.06830370774592933e-07
1617 1 1.06008975460457111e-07
1618 1 1.04632716981060635e-07
1619 1 1.07381694278660965e-07
1620 1 1.10258573383319117e-07
1621 1 1.09021424431614410e-07
1622 1 1.08333417258846557e-07
1623 1 1.09146362328552122e-07
1624 1 1.11467039903538367e-07
1625 1 1.09906799854818257e-07
1626 1 1.10544524156470830e-07
1627 1 1.12957567086171682e-07
1628 1 1.11912769711270295e-07
1629 1 1.13286527083856201e-07
1630 1 1.12762879019949677e-07
1631 1 1.11090952886465530e-07
1632 1 1.11625250923251078e-07
1633 1 1.13534868143944436e-07
1634 1 1.16030243511539564e-07
1635 1 1.14889067625585920e-07
1636 1 1.14498378421488722e-07
1637 1 1.15865787127335186e-07
1638 1 1.15535061361104338e-07
1639 1 1.13588610503798111e-07
1640 1 1.14749805681481257e-07
1641 1 1.14625143293450195e-07
1642 1 1.17812237984631937e-07
1643 1 1.16696256538783156e-07
1644 1 1.17756429978055213e-07
1645 1 1.19215123428926812e-07
1646 1 1.17141235380846006e-07
1647 1 1.18175738221027214e-07
1648 1 1.16132216520969017e-07
1649 1 1.15745621098616656e-07
1650 1 1.16922040061043473e-07
1651 1 1.16079040990882689e-07
1652 1 1.15914952889200657e-07
1653 1 1.17289310784283752e-07
1654 1 1.18039911560067487e-07
1655 1 1.17281437537796306e-07
1656 1 1.18552195902353537e-07
1657 1 1.16237151362579073e-07
1658 1 1.19367061094826472e-07
1659 1 1.18909745641073576e-07
1660 1 1.16470091638096213e-07
1661 1 1.18036171142168231e-07
1662 1 1.18933109883007901e-07
1663 1 1.17487118554628204e-07
1664 1 1.15998922718042972e-07
1665 1 1.17168138854324622e-07
1666 1 1.14552474813600733e-07
1667 1 1.13483629568485411e-07
1668 1 1.14962643269261911e-07
1669 1 1.14782687372097688e-07
1670 1 1.13060513028614364e-07
1671 1 1.14441302870493625e-07
1672 1 1.15560260389936078e-07
1673 1 1.12506552944820021e-07
1674 1 1.13453137893048261e-07
1675 1 1.11059968175817987e-07
1676 1 1.12328361530568029e-07
1677 1 1.11280933149087484e-07
1678 1 1.11948793658919909e-07
1679 1 1.10321393492887581e-07
1680 1 1.11363148732353868e-07
1681 1 1.09514653017103366e-07
1682 1 1.09265248143557294e-07
1683 1 1.10427971521341991e-07
1684 1 1.08659970244649193e-07
1685 1 1.09846746652077948e-07
1686 1 1.08996174566211880e-07
1687 1 1.09931208691919635e-07
1688 1 1.08623515414740903e-07
1689 1 1.12346318861325114e-07
1690 1 1.11252165581597252e-07
1691 1 1.12242052046191496e-07
1692 1 1.14089676562036762e-07
1693 1 1.13097196437912440e-07
1694 1 1.14208892767947326e-07
1695 1 1.15755887463227649e-07
1696 1 1.15301552270325468e-07
1697 1 1.16656566140141903e-07
1698 1 1.18108526486505526e-07
1699 1 1.16900966737415215e-07
1700 1 1.19475140355856787e-07
1701 1 1.20111661145102883e-07
1702 1 1.18301281015977816e-07
1703 1 1.14627296084916482e-07
1704 1 1.15359787849129476e-07
1705 1 1.10345504812187191e-07
1706 1 1.09862964513588380e-07
1707 1 1.13825760042056634e-07
1708 1 1.15634638241861391e-07
1709 1 1.20007534383056438e-07
1710 1 1.14739194357060249e-07
1711 1 1.13449023499673725e-07
1712 1 1.12350777569272775e-07
1713 1 1.19053771601198117e-07
1714 1 1.17712913816856252e-07
1715 1 1.18893378208206203e-07
1716 1 1.18868423856785329e-07
1717 1 1.17750978071569751e-07
1718 1 1.20267114908784234e-07
1719 1 1.15338554196902081e-07
1720 1 1.13509502383538420e-07
1721 1 1.11673545876100195e-07
1722 1 1.11443988805914975e-07
1723 1 1.09818637682996354e-07
1724 1 1.10544481645610800e-07
1725 1 1.12713815953620056e-07
1726 1 1.03997538560398673e-07
1727 1 1.05096151273247874e-07
1728 1 1.04383081345065333e-07
1729 1 1.03699361646293359e-07
1730 1 1.05855108003666910e-07
1731 1 1.06965874783827216e-07
1732 1 1.07095919644594580e-07
1733 1 1.04527671018653815e-07
1734 1 1.02971235278909508e-07
1735 1 1.05930559185021641e-07
1736 1 1.04049117038799888e-07
1737 1 1.03763455545875528e-07
1738 1 1.05158357745508974e-07
1739 1 1.03988569566161114e-07
1740 1 1.03536114347153540e-07
1741 1 1.02662184206699599e-07
1742 1 1.01167658351769302e-07
1743 1 9.89229065004270867e-08
1744 1 1.00206593984027647e-07
1745 1 9.96599910168734927e-08
1746 1 9.94958966329146248e-08
1747 1 9.77069946155637053e-08
1748 1 9.86308696404911822e-08
1749 1 9.77229861593438081e-08
1750 1 9.81909723390007834e-08
1751 1 9.86684473796084436e-08
1752 1 9.88212670378929960e-08
1753 1 9.51153048626777576e-08
1754 1 9.70476050834720592e-08
1755 1 9.81475548457014478e-08
1756 1 9.93150964596787491e-08
1757 1 9.98862922224978063e-08
1758 1 9.84355038153718409e-08
1759 1 9.91157556501883635e-08
1760 1 1.00007554222624400e-07
1761 1 9.71331769600338295e-08
1762 1 9.92227385119285455e-08
1763 1 9.85831898395708657e-08
1764 1 9.69519528184624778e-08
1765 1 9.80974313821033486e-08
1766 1 9.62663099594209637e-08
1767 1 9.52044271193547480e-08
1768 1 9.55880764560557801e-08
1769 1 9.69316525885410496e-08
1770 1 9.40004496889522691e-08
1771 1 9.44947098878716912e-08
1772 1 9.57614564497673013e-08
1773 1 1.00685787946602002e-07
1774 1 9.53924256350867531e-08
1775 1 9.58052731306873115e-08
1776 1 9.66725018471954432e-08
1777 1 9.69364025245361154e-08
1778 1 9.43084500800281801e-08
1779 1 9.54848904647291751e-08
1780 1 9.43667168987891379e-08
1781 1 9.56109838580471412e-08
1782 1 9.50552273159124547e-08
1783 1 9.36059686068261040e-08
1784 1 9.67861204939056684e-08
1785 1 9.58532026709716795e-08
1786 1 9.27136214466123693e-08
1787 1 9.42600391103202387e-08
1788 1 9.41980137030053195e-08
1789 1 9.51745980821997576e-08
1790 1 9.38006622609469079e-08
1791 1 9.21600322325457055e-08
1792 1 9.30795414563646624e-08
1793 1 9.42033939031463615e-08
1794 1 9.46970743879592560e-08
1795 1 9.12204520806688014e-08
1796 1 9.04812330832424404e-08
1797 1 9.19040336349473331e-08
1798 1 9.10436322123987059e-08
1799 1 9.21621392520611262e-08
1800 1 1.00720793379900242e-07
1801 1 1.02327361132315083e-07
1802 1 1.02002583908367529e-07
1803 1 1.05216720534981468e-07
1804 1 1.05040792692702665e-07
1805 1 1.06384485931269891e-07
1806 1 1.06351128333702061e-07
1807 1 1.07274399994724169e-07
1808 1 1.07810119114506141e-07
1809 1 1.07620552745380031e-07
1810 1 1.01294714455245047e-07
1811 1 9.90657195312057626e-08
1812 1 9.75710119715135916e-08
1813 1 1.01645702491673364e-07
1814 1 1.02649717633950535e-07
1815 1 1.07324228772405330e-07
1816 1 1.04702779091931226e-07
1817 1 1.05722840797043579e-07
1818 1 1.14044478563180493e-07
1819 1 1.15881810099979392e-07
1820 1 1.14961166088397748e-07
1821 1 1.18293971829094537e-07
1822 1 1.18806286132059375e-07
1823 1 1.19193097895775745e-07
1824 1 1.18018293840670376e-07
1825 1 1.17239589197532055e-07
1826 1 1.19143110874100678e-07
1827 1 1.22272703030258671e-07
1828 1 1.23058354207824910e-07
1829 1 1.24431546779323363e-07
1830 1 1.25540828705554950e-07
1831 1 1.26868377020855367e-07
1832 1 1.27692497367651877e-07
1833 1 1.27542947995971924e-07
1834 1 1.25712934874188408e-07
1835 1 1.25686339400494400e-07
1836 1 1.24713039305085646e-07
1837 1 1.21755015886098711e-07
1838 1 1.22414405305440438e-07
1839 1 1.22929879003969819e-07
1840 1 1.20854675323316041e-07
1841 1 1.28233471369200508e-07
1842 1 1.27620646860565054e-07
1843 1 1.26003402818496297e-07
1844 1 1.27113480089821546e-07
1845 1 1.27998826327113362e-07
1846 1 1.27110222152023186e-07
1847 1 1.26293100227793467e-07
1848 1 1.25072662788486760e-07
1849 1 1.26312392742604233e-07
1850 1 1.26118362613680831e-07
1851 1 1.25085417887691100e-07
1852 1 1.25035630764081651e-07
1853 1 1.22837765183103720e-07
1854 1 1.24478436494149285e-07
1855 1 1.23568137790899841e-07
1856 1 1.21919398480299427e-07
1857 1 1.22700027329210948e-07
1858 1 1.20825109872571649e-07
1859 1 1.21050718431928516e-07
1860 1 1.22548123334933122e-07
1861 1 1.21472994456999868e-07
1862 1 1.20622831674596895e-07
1863 1 1.21570721634059262e-07
1864 1 1.23290910510422352e-07
1865 1 1.22801976954287338e-07
1866 1 1.23858733313414110e-07
1867 1 1.24941931263293808e-07
1868 1 1.23986937169012289e-07
1869 1 1.22252486398014950e-07
1870 1 1.24400619637892596e-07
1871 1 1.21782804568000895e-07
1872 1 1.25541997449834703e-07
1873 1 1.29075576992435610e-07
1874 1 1.26854082345434738e-07
1875 1 1.26228793851696554e-07
1876 1 1.25645881136856203e-07
1877 1 1.27803078092270146e-07
1878 1 1.28764416164892514e-07
1879 1 1.27961111125757680e-07
1880 1 1.28990488183585116e-07
1881 1 1.28027716410961714e-07
1882 1 1.26918698069939659e-07
1883 1 1.26827179882024794e-07
1884 1 1.25717147755213931e-07
1885 1 1.27938489336201979e-07
1886 1 1.61264561002880790e-07
1887 1 1.62340226047618375e-07
1888 1 1.61837208980221237e-07
1889 1 1.64768008011348798e-07
1890 1 1.30544705568253490e-07
1891 1 1.33873006726608916e-07
1892 1 1.05364574829974042e-07
1893 1 1.06617594983799657e-07
1894 1 1.07383782825796449e-07
1895 1 1.21591363695363214e-07
1896 1 1.44024403390412678e-07
1897 1 1.45043637758110361e-07
1898 1 1.43405872841920620e-07
1899 1 1.44530156041143085e-07
1900 1 1.43245269684326898e-07
1901 1 1.42449397989943173e-07
1902 1 1.42066103351984355e-07
1903 1 7.68191431391991021e-08
1904 1 1.08076461387800071e-07
1905 1 1.09411373605660827e-07
1906 1 1.10636411650046073e-07
1907 1 1.10154971554821559e-07
1908 1 1.11416025466800315e-07
1909 1 1.08974265327012331e-07
1910 1 7.36363290072299563e-08
1911 1 7.27471940007247808e-08
1912 1 7.47650752335417559e-08
1913 1 7.66807725263946506e-08
1914 1 7.60013550546779726e-08
1915 1 7.47040638953652249e-08
1916 1 7.48776954592641452e-08
1917 1 7.78962963472244013e-08
1918 1 7.69022720174869456e-08
1919 1 7.10047673596089178e-08
1920 1 1.16208333999999998e-07
1921 1 1.66392733978208186e-07
1922 1 1.64537989489242075e-07
1923 1 1.64088128649033035e-07
1924 1 1.65946154082384620e-07
1925 1 1.67250782312176345e-07
1926 1 1.67612909028691144e-07
1927 1 1.66612810276937644e-07
1928 1 1.67480693351372918e-07
1929 1 1.65200259926237394e-07
1930 1 1.63886349329319751e-07
1931 1 1.64686542830449925e-07
1932 1 1.63340219727310272e-07
1933 1 1.61450463464593593e-07
1934 1 1.62937400897778579e-07
1935 1 1.61807285645776373e-07
1936 1 1.69136830066767670e-07
1937 1 1.68386499969205955e-07
1938 1 1.69593244933101381e-07
1939 1 1.69756217146651970e-07
1940 1 1.68169979905633128e-07
1941 1 1.69374282500000037e-07
1942 1 7.59882266112243128e-08
1943 1 7.72970508040400066e-08
1944 1 7.67703041226826469e-08
1945 1 1.52681429877351284e-07
1946 1 1.54124957437010173e-07
1947 1 1.53253262803817168e-07
1948 1 1.54645809081658809e-07
1949 1 1.55771021238101990e-07
1950 1 1.54843595071867351e-07
1951 1 1.55953291734020531e-07
1952 1 1.56935174821439865e-07
1953 1 1.58857949153156718e-07
1954 1 1.58136585130564873e-07
1955 1 1.57257746549292419e-07
1956 1 1.60922918566341804e-07
1957 1 1.59416347078743271e-07
1958 1 1.60170160180042500e-07
1959 1 1.61682946617658115e-07
1960 1 1.62754081479763014e-07
1961 1 1.63978272345278206e-07
1962 1 1.60168900527332581e-07
1963 1 1.59132849449560574e-07
1964 1 1.57038797982920258e-07
1965 1 1.61705007410042883e-07
1966 1 1.62819957850860028e-07
1967 1 1.58194034392443558e-07
1968 1 1.58116007564640087e-07
1969 1 1.56583847497820687e-07
1970 1 1.59682974626172732e-07
1971 1 1.60379908209375422e-07
1972 1 1.56924943046311727e-07
1973 1 1.57729746365984013e-07
1974 1 1.58135111575602760e-07
1975 1 1.56628321643417441e-07
1976 1 1.58778936969627786e-07
1977 1 1.59013986509502890e-07
1978 1 1.55777266854535242e-07
1979 1 1.54956917213350519e-07
1980 1 1.54669350738612908e-07
1981 1 1.55195950246657410e-07
1982 1 1.48713595163605609e-07
1983 1 1.41545725725715671e-07
1984 1 1.41763499452862414e-07
1985 1 1.41125926792660088e-07
1986 1 1.40269418333330339e-07
1987 1 1.39209125261086725e-07
1988 1 1.49663647294305832e-07
1989 1 1.60490213756780589e-07
1990 1 1.32070278999999997e-07
1991 1 1.15085832302529743e-07
1992 1 1.66219052179783158e-07
1993 1 8.76204735763917808e-08
1994 1 1.49529703309905504e-07
1995 1 1.34879124340661404e-07
1996 1 1.35155217422251868e-07
1997 1 1.36437068443476303e-07
1998 1 1.37471377018749807e-07
1999 1 1.38703076347924427e-07
2000 1 1.36543707361491802e-07
2001 1 1.37373124486184228e-07
2002 1 1.37927232223337504e-07
2003 1 1.36660714347380762e-07
2004 1 1.36575259669466708e-07
2005 1 1.36896784503706825e-07
2006 1 1.39324458743667086e-07
2007 1 1.38199880599422315e-07
2008 1 1.39300958605740251e-07
2009 1 1.38093107423986083e-07
2010 1 1.39341688659924042e-07
2011 1 1.38931548522819378e-07
2012 1 1.40751910988582562e-07
2013 1 1.41170523609226360e-07
2014 1 1.40428191905562815e-07
2015 1 1.42220307863177939e-07
2016 1 1.34815788448099944e-07
2017 1 1.35692050332490890e-07
2018 1 1.33146888400455140e-07
2019 1 1.34261602318988002e-07
2020 1 1.33946283053670305e-07
2021 1 1.33467753260755432e-07
2022 1 1.32383995867490551e-07
2023 1 1.35141816503605610e-07
2024 1 1.33458618968187214e-07
2025 1 1.34503218368531615e-07
2026 1 1.31767032825834573e-07
2027 1 1.39869177906932550e-07
2028 1 1.45640589771082062e-07
2029 1 1.46730634834079446e-07
2030 1 1.46923147613096955e-07
2031 1 1.47701946888910068e-07
2032 1 1.45744750283713585e-07
2033 1 1.46815871118145655e-07
2034 1 1.43747202060705728e-07
2035 1 1.43632639955616153e-07
2036 1 1.45320774824507809e-07
2037 1 1.43158472804554333e-07
2038 1 1.25536473532950604e-07
2039 1 1.22446367011963961e-07
2040 1 1.22118043288470417e-07
2041 1 1.21340224575921198e-07
2042 1 1.24214037682268024e-07
2043 1 1.20979017465155154e-07
2044 1 7.75933569671557383e-08
2045 1 7.91347116078293581e-08
2046 1 7.78117275670479382e-08
2047 1 7.92726705115633302e-08
2048 1 8.25683675318660924e-08
2049 1 8.07963146036324102e-08
2050 1 8.11075323332160485e-08
2051 1 7.99473072160489977e-08
2052 1 8.00876738127995554e-08
2053 1 8.21855114931638423e-08
2054 1 8.52877979707536837e-08
2055 1 8.63216773684424079e-08
2056 1 8.76398457198458576e-08
2057 1 8.64604655393608823e-08
2058 1 8.70900697730981212e-08
2059 1 8.84036230286493651e-08
2060 1 8.43864150562949300e-08
2061 1 8.44442772336341173e-08
2062 1 8.56916008759431765e-08
2063 1 8.52926525590892747e-08
2064 1 8.45605561447789901e-08
2065 1 8.52443439211508372e-08
2066 1 8.40700935299165348e-08
2067 1 8.38806042719074638e-08
2068 1 8.12335986346632144e-08
2069 1 8.09413030173088774e-08
2070 1 8.24778071105278011e-08
2071 1 8.21825164156766477e-08
2072 1 8.20205984161705684e-08
2073 1 7.97585508137731681e-08
2074 1 8.12041420972832454e-08
2075 1 8.36303284820922831e-08
2076 1 7.87441371489182265e-08
2077 1 8.14869897695531166e-08
2078 1 8.03693812107155282e-08
2079 1 8.02737966706603680e-08
2080 1 7.86103868495918183e-08
2081 1 8.12968444289323426e-08
2082 1 8.23537615253683911e-08
2083 1 8.29998573809223493e-08
2084 1 8.47345477444943633e-08
2085 1 8.47069966646000275e-08
2086 1 8.40203878940985926e-08
2087 1 8.72075681163266117e-08
2088 1 8.62235398271559695e-08
2089 1 8.58401838617198188e-08
2090 1 8.60879107250855352e-08
2091 1 8.74809199303741981e-08
2092 1 8.49402682775350545e-08
2093 1 8.50065255367687481e-08
2094 1 8.78317339113914498e-08
2095 1 8.80944336948913810e-08
2096 1 8.67333227269791460e-08
2097 1 8.93220133965613755e-08
2098 1 8.91932942475004111e-08
2099 1 8.88710408589808913e-08
2100 1 9.04033497263653625e-08
2101 1 9.07189967608662628e-08
2102 1 9.07344589062433602e-08
2103 1 9.28218613963432937e-08
2104 1 9.15909376421134816e-08
2105 1 9.19137209082649475e-08
2106 1 9.25607016735374963e-08
2107 1 9.33621439055294149e-08
2108 1 9.51624471939363813e-08
2109 1 9.57334631524667243e-08
2110 1 9.68484671637365854e-08
2111 1 9.60147747662257168e-08
2112 1 9.69624696165045784e-08
2113 1 9.79303308059229676e-08
2114 1 9.41557923067361332e-08
2115 1 9.37720188906817991e-08
2116 1 9.28293634965593906e-08
2117 1 9.16188384721396482e-08
2118 1 9.10095763392853894e-08
2119 1 8.96404298993169643e-08
2120 1 7.81427277336880037e-08
2121 1 8.16005015716956038e-08
2122 1 7.66135658850146166e-08
2123 1 7.75025726432213603e-08
2124 1 7.64576956913912396e-08
2125 1 1.17022660769284878e-07
2126 1 8.07747626671828028e-08
2127 1 7.99002161732638949e-08
2128 1 8.03554273405723284e-08
2129 1 7.93768114139464697e-08
2130 1 7.88053408707158155e-08
2131 1 7.89016266052067156e-08
2132 1 8.00536344923554029e-08
2133 1 7.99249669804134703e-08
2134 1 1.81662089658115835e-07
2135 1 1.64940368090491526e-07
2136 1 1.34025337264740931e-07
2137 1 1.66976394999999976e-07
2138 1 1.11956210363327537e-07
2139 1 1.13658135301625558e-07
2140 1 1.14200344484098739e-07
2141 1 1.13475092933455035e-07
2142 1 1.13865842259223294e-07
2143 1 1.14922337513411849e-07
2144 1 1.15709711774492800e-07
2145 1 1.15304026172909123e-07
2146 1 1.17171122280358115e-07
2147 1 1.11228487517360817e-07
2148 1 1.20190276999999992e-07
2149 1 8.72805512109590198e-08
2150 1 1.66763896499999992e-07
2151 1 1.66012663919623261e-07
2152 1 1.14630830272388585e-07
2153 1 9.30709896858887009e-08
2154 1 9.42264090187074911e-08
2155 1 1.27662779944326979e-07
2156 1 7.39436185412915420e-08
2157 1 7.31415781802990082e-08
2158 1 1.26147859620584344e-07
2159 1 1.27695926232504724e-07
2160 1 1.27414242043839391e-07
2161 1 1.28129475367549511e-07
2162 1 1.27461748132458237e-07
2163 1 1.28723871160531845e-07
2164 1 1.29070069833510241e-07
2165 1 1.59995523882720817e-07
2166 1 1.05294057245270061e-07
2167 1 1.06585201704765054e-07
2168 1 1.07986763570192484e-07
2169 1 1.08389114016198296e-07
2170 1 1.06635521472631929e-07
2171 1 1.05635492963503105e-07
2172 1 1.09763869257571262e-07
2173 1 1.08583938849206356e-07
2174 1 1.08901448148743393e-07
2175 1 1.06817779257768381e-07
2176 1 1.06014274724898989e-07
2177 1 9.31361199999999929e-08
2178 1 7.28722040810527592e-08
2179 1 1.60762799666904172e-07
2180 1 1.60799243636056433e-07
2181 1 1.61946852858934376e-07
2182 1 1.62419442999999959e-07
2183 1 1.52336865105999962e-07
2184 1 1.51500351386663846e-07
2185 1 1.52772755619329208e-07
2186 1 1.53761820302808303e-07
2187 1 1.54166118976617616e-07
2188 1 1.53392203107287228e-07
2189 1 1.52817292327264479e-07
2190 1 1.54622814340505347e-07
2191 1 1.50947255993552475e-07
2192 1 1.54732238681238743e-07
2193 1 1.55724699782317056e-07
2194 1 1.56383093913056119e-07
2195 1 1.56566621392145976e-07
2196 1 8.31973658805842409e-08
2197 1 1.38294448999999995e-07
2198 1 1.62918901241678871e-07
2199 1 1.59071386712154735e-07
2200 1 1.59830561499999995e-07
2201 1 8.28525112837549856e-08
2202 1 1.57843060499999974e-07
2203 1 7.58781309999999983e-08
2204 1 1.21323783956747870e-07
2205 1 1.60502339700500750e-07
2206 1 1.60643330941467960e-07
2207 1 1.62619413181372860e-07
2208 1 1.62580557282322698e-07
2209 1 1.04899517920597482e-07
2210 1 1.58430552500000016e-07
2211 1 1.61447758266947912e-07
2212 1 1.62712353545385819e-07
2213 1 1.63919533702038987e-07
2214 1 1.62690832710568538e-07
2215 1 1.55305558167388017e-07
2216 1 1.54545563653518095e-07
2217 1 1.51209973469943167e-07
2218 1 1.50721289110040598e-07
2219 1 1.49653825070112939e-07
2220 1 1.11645586635833977e-07
2221 1 1.11053359522072066e-07
2222 1 1.10110696673585357e-07
2223 1 1.12321187389292260e-07
2224 1 1.09025318718317292e-07
2225 1 1.13130560028714762e-07
2226 1 1.12155656722915699e-07
2227 1 1.13243572874417457e-07
2228 1 1.14256219426350925e-07
2229 1 1.10965326338636446e-07
2230 1 1.10658713974610551e-07
2231 1 1.10811490527035682e-07
2232 1 1.17122174526581726e-07
2233 1 1.12882053002243392e-07
2234 1 1.12903993924846573e-07
2235 1 1.13799030819038047e-07
2236 1 1.13905876950560333e-07
2237 1 9.01054214216726454e-08
2238 1 9.01908262016422225e-08
2239 1 9.14120373075224585e-08
2240 1 9.00377709974023932e-08
2241 1 8.85226639414193636e-08
2242 1 8.75040408924788722e-08
2243 1 8.62046741855093925e-08
2244 1 8.80329787467574724e-08
2245 1 8.37209365899335581e-08
2246 1 8.24409587249889297e-08
2247 1 7.73846957102781609e-08
2248 1 8.38148026442536265e-08
2249 1 1.32238099709359055e-07
2250 1 1.33854593489327475e-07
2251 1 1.35617898515995337e-07
2252 1 1.37858377058451263e-07
2253 1 1.36332395297472501e-07
2254 1 1.43009538994827438e-07
2255 1 1.58071616171690294e-07
2256 1 1.59173641978320104e-07
2257 1 1.70529205684792131e-07
2258 1 1.71681930000000026e-07
2259 1 7.35752544956977927e-08
2260 1 7.39202096020487644e-08
2261 1 7.55399663007529802e-08
2262 1 7.57335766704560971e-08
2263 1 7.67920896263075256e-08
2264 1 7.48076184532737018e-08
2265 1 7.63285830821264791e-08
2266 1 7.19028139659415255e-08
2267 1 1.26251594603177979e-07
2268 1 1.20752865066611421e-07
2269 1 1.03555472088624232e-07
2270 1 9.99374461225196432e-08
2271 1 9.76785018881804583e-08
2272 1 1.17049894364827167e-07
2273 1 1.16460291550203693e-07
2274 1 1.18614213031383137e-07
2275 1 1.18808540669764252e-07
2276 1 1.14714624553882406e-07
2277 1 1.00502780915825290e-07
2278 1 1.02615718967693115e-07
2279 1 1.06861397490554980e-07
2280 1 1.21147902335104031e-07
2281 1 1.21651318286326859e-07
2282 1 1.17699429856180713e-07
2283 1 1.15869169377679254e-07
2284 1 1.17444264631600567e-07
2285 1 1.22424486239545551e-07
2286 1 1.26264624971021139e-07
2287 1 1.06388555538959138e-07
2288 1 1.00759076662504682e-07
2289 1 1.49229064919357133e-07
2290 1 1.13043563848229837e-07
2291 1 7.42989915229502565e-08
2292 1 1.41923574244245773e-07
2293 1 1.72748965679241530e-07
2294 1 1.12178764385555335e-07
2295 1 1.58546730994433512e-07
2296 1 1.34687261499999989e-07
2297 1 1.33977048465155420e-07
2298 1 1.25280213943295567e-07
2299 1 1.38398759698707228e-07
2300 1 1.21425267478035014e-07
2301 1 1.10637302264590405e-07
1 2 4.08284721000000079e-07
2 2 4.08156930000000057e-07
3 2 4.08359719999999975e-07
4 2 4.07090262999999976e-07
5 2 4.06381949999999890e-07
6 2 4.06270829999999991e-07
7 2 4.05701369999999980e-07
8 2 4.06207198999999986e-07
9 2 4.06168059999999994e-07
10 2 4.06484717999999986e-07
11 2 4.06340293999999979e-07
12 2 4.06773605000000089e-07
13 2 4.05884705000000000e-07
14 2 4.04243049999999919e-07
15 2 4.03584709000000000e-07
16 2 4.03359717999999963e-07
17 2 4.02801398999999867e-07
18 2 4.02176398999999979e-07
19 2 4.01645850999999984e-07
20 2 4.01751404000000071e-07
21 2 4.00737495000000046e-07
22 2 4.00340270999999974e-07
23 2 3.99920844999999992e-07
24 2 4.00637511999999941e-07
25 2 4.00781937000000005e-07
26 2 4.00412479999999967e-07
27 2 3.99242133999999979e-07
28 2 3.98943061999999988e-07
29 2 3.97379150000000016e-07
30 2 3.95531960000000011e-07
31 2 3.95276374999999956e-07
32 2 3.94437485000000013e-07
33 2 3.92715263000000007e-07
34 2 3.91359711000000095e-07
35 2 3.90498008999999934e-07
36 2 3.89523620999999963e-07
37 2 3.89115294999999959e-07
38 2 3.88114738000000034e-07
39 2 3.87495842000000000e-07
40 2 3.87115287999999995e-07
41 2 3.87234725999999998e-07
42 2 3.86909713999999983e-07
43 2 3.86626396000000018e-07
44 2 3.86259727000000087e-07
45 2 3.85406951999999963e-07
46 2 3.85078545000000020e-07
47 2 3.84390259000000003e-07
48 2 3.83640289000000002e-07
49 2 3.82809715000000102e-07
50 2 3.82326393000000054e-07
51 2 3.81354179000000029e-07
52 2 3.81031952000000005e-07
53 2 3.80412482999999957e-07
54 2 3.80015297000000024e-07
55 2 3.79537505999999975e-07
56 2 3.79165268000000013e-07
57 2 3.79295844999999978e-07
58 2 3.79240265000000061e-07
59 2 3.80326384999999981e-07
60 2 3.81273613000000002e-07
61 2 3.82940291999999961e-07
62 2 3.83343049999999990e-07
63 2 3.84345820000000054e-07
64 2 3.84706190000000058e-07
65 2 3.85681953000000093e-07
66 2 3.87223625000000016e-07
67 2 3.88129157999999985e-07
68 2 3.88840293999999988e-07
69 2 3.89281960000000071e-07
70 2 3.89395827999999986e-07
71 2 3.89054184000000043e-07
72 2 3.89526405000000003e-07
73 2 3.90334739999999911e-07
74 2 3.90959740000000011e-07
75 2 3.92062491999999912e-07
76 2 3.92465285999999966e-07
77 2 3.93173598999999999e-07
78 2 3.93781928999999979e-07
79 2 3.94418067999999934e-07
80 2 3.94828376999999985e-07
81 2 3.95379180999999978e-07
82 2 3.96145820999999992e-07
83 2 3.96223601999999974e-07
84 2 3.96609729999999976e-07
85 2 3.97248610999999978e-07
86 2 3.97504158000000001e-07
87 2 3.98129157999999995e-07
88 2 3.99662513999999981e-07
89 2 4.00365295000000010e-07
90 2 4.01195830999999984e-07
91 2 4.01990279999999972e-07
92 2 4.02970848000000073e-07
93 2 4.03990706999999977e-07
94 2 4.04698600999999919e-07
95 2 4.05059738000000005e-07
96 2 4.05176389999999960e-07
97 2 4.04498600000000006e-07
98 2 4.04048609999999956e-07
99 2 4.02948607999999972e-07
100 2 4.03043059999999971e-07
101 2 4.02947234999999967e-07
102 2 4.02820819999999960e-07
103 2 4.02515259999999939e-07
104 2 4.01834717000000004e-07
105 2 4.01340293999999921e-07
106 2 4.00373609999999997e-07
107 2 3.99951399999999974e-07
108 2 3.99295844999999998e-07
109 2 3.98379173000000068e-07
110 2 3.97951392999999958e-07
111 2 3.98185195999999932e-07
112 2 3.99120827000000025e-07
113 2 4.00234717999999993e-07
114 2 4.01079177999999972e-07
115 2 4.01926383999999959e-07
116 2 4.02943038999999887e-07
117 2 4.04693069000000021e-07
118 2 4.05156937000000069e-07
119 2 4.05681950000000050e-07
120 2 4.05968060000000032e-07
121 2 4.06856960000000015e-07
122 2 4.06904179999999993e-07
123 2 4.07656936999999939e-07
124 2 4.08334731999999964e-07
125 2 4.08929940000000043e-07
126 2 4.09709739999999991e-07
127 2 4.10779149999999964e-07
128 2 4.12076379999999966e-07
129 2 4.12295836999999993e-07
130 2 4.12826384999999987e-07
131 2 4.13248596000000067e-07
132 2 4.13562508000000050e-07
133 2 4.14256935000000004e-07
134 2 4.14737511000000044e-07
135 2 4.15365299999999990e-07
136 2 4.16159709999999943e-07
137 2 4.16931953000000006e-07
138 2 4.17745819999999970e-07
139 2 4.18873600000000027e-07
140 2 4.19409713999999884e-07
141 2 4.19506949999999976e-07
142 2 4.19293059999999974e-07
143 2 4.19148598000000041e-07
144 2 4.19276390000000014e-07
145 2 4.19051399999999980e-07
146 2 4.19262504999999938e-07
147 2 4.19393044000000029e-07
148 2 4.20054168999999935e-07
149 2 4.20218047999999894e-07
150 2 4.20701369999999942e-07
151 2 4.21056937999999996e-07
152 2 4.21731948999999981e-07
153 2 4.21965293999999988e-07
154 2 4.22512511999999996e-07
155 2 4.23601378999999981e-07
156 2 4.24451369999999959e-07
157 2 4.25309715000000013e-07
158 2 4.26029167000000006e-07
159 2 4.27068061999999983e-07
160 2 4.28162497999999999e-07
161 2 4.28956108000000014e-07
162 2 4.30674476999999966e-07
163 2 4.30984726000000109e-07
164 2 4.32948608000000055e-07
165 2 4.34749565000000009e-07
166 2 4.35481949000000008e-07
167 2 4.36298599000000009e-07
168 2 4.36170844999999962e-07
169 2 4.36737517999999975e-07
170 2 4.37504158000000095e-07
171 2 4.39237518000000004e-07
172 2 4.39681930999999994e-07
173 2 4.39726371999999949e-07
174 2 4.40779152000000001e-07
175 2 4.41631930000000031e-07
176 2 4.41630975000000008e-07
177 2 4.41628952000000028e-07
178 2 4.42247276000000104e-07
179 2 4.42706947000000014e-07
180 2 4.44615287999999974e-07
181 2 4.46295089999999996e-07
182 2 4.46870840000000007e-07
183 2 4.47648620000000038e-07
184 2 4.48412510000000029e-07
185 2 4.47926407000000057e-07
186 2 4.49045829999999975e-07
187 2 4.49948620000000052e-07
188 2 4.50881960000000041e-07
189 2 4.51134719999999960e-07
190 2 4.51590729999999984e-07
191 2 4.51870840000000065e-07
192 2 4.52601390000000029e-07
193 2 4.53027920000000000e-07
194 2 4.53279149999999980e-07
195 2 4.53845829999999912e-07
196 2 4.54154170000000013e-07
197 2 4.54526410000000087e-07
198 2 4.55112499999999967e-07
199 2 4.55215260000000033e-07
200 2 4.55740279999999987e-07
201 2 4.55373610000000000e-07
202 2 4.54887500000000056e-07
203 2 4.54993060000000062e-07
204 2 4.54412499999999967e-07
205 2 4.55404166999999937e-07
206 2 4.56131939999999992e-07
207 2 4.56348610000000020e-07
208 2 4.56569251999999952e-07
209 2 4.57304152999999976e-07
210 2 4.57704163000000042e-07
211 2 4.57410549999999948e-07
212 2 4.57409709999999971e-07
213 2 4.57273219999999998e-07
214 2 4.56776390000000025e-07
215 2 4.57298619999999969e-07
216 2 4.57798615000000041e-07
217 2 4.57670821999999906e-07
218 2 4.56840285999999985e-07
219 2 4.55794373000000015e-07
220 2 4.56264915000000026e-07
221 2 4.56688880999999959e-07
222 2 4.57726935999999907e-07
223 2 4.58269500999999977e-07
224 2 4.58617743999999929e-07
225 2 4.59836616999999977e-07
226 2 4.59929580999999979e-07
227 2 4.60517844999999962e-07
228 2 4.61515620000000013e-07
229 2 4.61826667999999984e-07
230 2 4.61962241999999969e-07
231 2 4.62932509999999976e-07
232 2 4.63639182999999936e-07
233 2 4.64007263000000008e-07
234 2 4.64410400000000036e-07
235 2 4.64760398999999952e-07
236 2 4.65213921000000004e-07
237 2 4.65667071999999980e-07
238 2 4.65536134999999981e-07
239 2 4.66012476999999961e-07
240 2 4.66103160000000052e-07
241 2 4.66350730000000044e-07
242 2 4.66574109000000057e-07
243 2 4.66592715000000053e-07
244 2 4.66803779999999919e-07
245 2 4.67167901999999980e-07
246 2 4.67754311000000011e-07
247 2 4.67854546000000024e-07
248 2 4.68877073999999974e-07
249 2 4.68780888999999883e-07
250 2 4.69569596000000006e-07
251 2 4.70123133999999964e-07
252 2 4.70272930000000029e-07
253 2 4.70926511999999996e-07
254 2 4.70600351999999945e-07
255 2 4.70380661999999973e-07
256 2 4.69732531999999879e-07
257 2 4.70138114999999991e-07
258 2 4.70051103999999985e-07
259 2 4.69670789000000000e-07
260 2 4.69928902000000067e-07
261 2 4.69699963000000002e-07
262 2 4.68565110999999914e-07
263 2 4.67664076000000009e-07
264 2 4.67633502000000010e-07
265 2 4.67918250999999979e-07
266 2 4.68747844999999977e-07
267 2 4.68429258999999979e-07
268 2 4.68596025999999985e-07
269 2 4.67526511999999952e-07
270 2 4.66808434000000019e-07
271 2 4.66377029999999892e-07
272 2 4.66192211000000047e-07
273 2 4.65362930000000073e-07
274 2 4.65547448999999941e-07
275 2 4.65564159999999997e-07
276 2 4.66288375999999961e-07
277 2 4.66102295000000038e-07
278 2 4.65487098999999980e-07
279 2 4.64461441000000004e-07
280 2 4.64137267999999909e-07
281 2 4.63386191999999973e-07
282 2 4.62589377999999982e-07
283 2 4.62293357999999997e-07
284 2 4.62897758000000016e-07
285 2 4.63461341999999940e-07
286 2 4.63819083999999940e-07
287 2 4.63413089999999978e-07
288 2 4.63007089999999994e-07
289 2 4.63105087000000094e-07
290 2 4.64303246000000017e-07
291 2 4.65143470999999933e-07
292 2 4.65042533999999968e-07
293 2 4.64193877999999962e-07
294 2 4.63158073000000024e-07
295 2 4.62334975999999983e-07
296 2 4.61342811999999957e-07
297 2 4.61168479999999985e-07
298 2 4.60659903999999966e-07
299 2 4.60525169000000007e-07
300 2 4.59304160999999943e-07
301 2 4.59158287000000023e-07
302 2 4.58226547000000015e-07
303 2 4.58353156999999989e-07
304 2 4.59156760999999993e-07
305 2 4.60095558000000083e-07
306 2 4.60757484000000036e-07
307 2 4.61028366000000048e-07
308 2 4.61135941000000005e-07
309 2 4.61510467999999959e-07
310 2 4.62198715000000047e-07
311 2 4.62260817999999961e-07
312 2 4.62975540000000002e-07
313 2 4.63640938000000002e-07
314 2 4.64601936000000053e-07
315 2 4.64101867999999980e-07
316 2 4.63071021999999978e-07
317 2 4.62991942999999999e-07
318 2 4.62610550000000074e-07
319 2 4.61815375999999997e-07
320 2 4.61094970999999988e-07
321 2 4.60950737000000035e-07
322 2 4.60430755999999937e-07
323 2 4.59991837000000025e-07
324 2 4.59979972999999975e-07
325 2 4.59305495999999916e-07
326 2 4.59241447000000089e-07
327 2 4.59738883999999988e-07
328 2 4.59653586999999952e-07
329 2 4.59001998999999966e-07
330 2 4.59256782999999975e-07
331 2 4.58928031999999949e-07
332 2 4.58623657000000044e-07
333 2 4.59260863999999955e-07
334 2 4.58822593999999962e-07
335 2 4.58239632000000047e-07
336 2 4.58268699999999983e-07
337 2 4.57218704000000024e-07
338 2 4.56204413999999993e-07
339 2 4.55107803000000028e-07
340 2 4.54652672000000016e-07
341 2 4.54036942000000032e-07
342 2 4.53219909999999969e-07
343 2 4.52545623999999914e-07
344 2 4.52082787000000007e-07
345 2 4.51286239999999979e-07
346 2 4.51543044999999960e-07
347 2 4.51089019999999990e-07
348 2 4.50209160000000029e-07
349 2 4.50236091999999946e-07
350 2 4.49136085999999947e-07
351 2 4.48455123999999922e-07
352 2 4.48636207999999929e-07
353 2 4.48230475999999911e-07
354 2 4.47472266999999987e-07
355 2 4.47118721000000015e-07
356 2 4.46536253000000040e-07
357 2 4.45760306999999991e-07
358 2 4.45311316999999968e-07
359 2 4.43543510000000093e-07
360 2 4.42438506999999967e-07
361 2 4.41976508999999980e-07
362 2 4.41476668999999994e-07
363 2 4.41170616000000090e-07
364 2 4.41545601000000010e-07
365 2 4.41279792999999982e-07
366 2 4.40630950000000001e-07
367 2 4.40293808999999981e-07
368 2 4.39760131999999964e-07
369 2 4.39453392000000004e-07
370 2 4.38995667000000005e-07
371 2 4.38723679000000005e-07
372 2 4.37840157000000049e-07
373 2 4.37762489000000053e-07
374 2 4.38006935000000041e-07
375 2 4.38518065999999905e-07
376 2 4.38918036999999989e-07
377 2 4.39399299999999926e-07
378 2 4.40006942999999956e-07
379 2 4.40420840000000052e-07
380 2 4.41418037000000070e-07
381 2 4.41806945999999943e-07
382 2 4.43279152000000030e-07
383 2 4.43798598999999990e-07
384 2 4.44270820000000004e-07
385 2 4.43773612999999933e-07
386 2 4.43601378999999895e-07
387 2 4.43231925999999978e-07
388 2 4.42995833999999959e-07
389 2 4.43448601000000077e-07
390 2 4.42815285000000093e-07
391 2 4.42168044999999891e-07
392 2 4.41423607000000000e-07
393 2 4.40751380999999953e-07
394 2 4.41095847999999920e-07
395 2 4.40370827000000001e-07
396 2 4.40445975999999965e-07
397 2 4.39764823999999938e-07
398 2 4.38720817999999950e-07
399 2 4.38166541999999962e-07
400 2 4.35876389999999990e-07
401 2 4.35879173000000027e-07
402 2 4.35879169999999963e-07
403 2 4.35882110999999885e-07
404 2 4.35884700000000065e-07
405 2 4.35993041999999999e-07
406 2 4.35473590000000020e-07
407 2 4.34734730000000087e-07
408 2 4.33993072999999908e-07
409 2 4.33170852999999978e-07
410 2 4.32851372000000015e-07
411 2 4.31929168999999927e-07
412 2 4.31065289999999969e-07
413 2 4.29315262000000001e-07
414 2 4.29506949999999881e-07
415 2 4.29418067999999970e-07
416 2 4.28904152000000009e-07
417 2 4.27987520000000013e-07
418 2 4.27740289999999984e-07
419 2 4.27484739999999950e-07
420 2 4.27090260000000038e-07
421 2 4.26618039999999975e-07
422 2 4.26273612999999889e-07
423 2 4.25565262000000037e-07
424 2 4.25101395000000046e-07
425 2 4.24373627000000009e-07
426 2 4.23926390000000045e-07
427 2 4.23651390000000025e-07
428 2 4.24137496999999958e-07
429 2 4.23779181999999892e-07
430 2 4.23423615000000053e-07
431 2 4.22404175000000028e-07
432 2 4.21584739999999983e-07
433 2 4.20293044999999942e-07
434 2 4.20390281999999985e-07
435 2 4.19279175000000058e-07
436 2 4.18554150000000071e-07
437 2 4.17381935000000027e-07
438 2 4.16990280000000040e-07
439 2 4.16395835999999979e-07
440 2 4.15365295000000078e-07
441 2 4.14459724000000025e-07
442 2 4.14570846999999988e-07
443 2 4.14168052999999987e-07
444 2 4.14154167000000014e-07
445 2 4.13798599000000013e-07
446 2 4.13198623999999900e-07
447 2 4.12262497000000072e-07
448 2 4.12254180999999975e-07
449 2 4.12687491999999980e-07
450 2 4.12965278999999999e-07
451 2 4.12756958000000028e-07
452 2 4.12218055999999957e-07
453 2 4.12606926000000006e-07
454 2 4.12534714000000056e-07
455 2 4.12236481000000037e-07
456 2 4.10904160000000009e-07
457 2 4.10248599999999909e-07
458 2 4.08996769999999953e-07
459 2 4.37021465999999950e-07
460 2 4.36448927999999996e-07
461 2 4.36162659000000020e-07
462 2 4.36019524499999978e-07
463 2 4.57998218499999942e-07
464 2 4.57207908499999933e-07
465 2 4.56240275000000006e-07
466 2 4.56294442499999987e-07
467 2 4.54908333499999978e-07
468 2 4.54660416749999973e-07
469 2 4.54784375124999976e-07
470 2 4.54940280000000085e-07
471 2 4.35947957250000011e-07
472 2 4.35912173625000027e-07
473 2 4.35894281812499982e-07
474 2 4.35885335906249960e-07
475 2 4.05954284499999983e-07
476 2 4.35886604201650153e-07
477 2 4.35882849354316232e-07
478 2 4.35880932624354023e-07
479 2 4.35880862953124948e-07
480 2 4.35881897322964513e-07
481 2 4.35880640499999951e-07
482 2 4.35881885393204359e-07
483 2 4.35879905249999957e-07
484 2 4.58749751297983542e-07
485 2 4.58079940302042080e-07
486 2 4.57745034454794559e-07
487 2 4.57577580841602680e-07
488 2 4.57493852641498814e-07
489 2 4.57451985759587341e-07
490 2 4.57341465000000011e-07
491 2 4.57431046757581209e-07
492 2 4.57420566121243943e-07
493 2 4.57415303446377718e-07
494 2 4.57412626724828395e-07
495 2 4.57557356500000022e-07
496 2 4.57483953249999958e-07
497 2 4.57447251624999927e-07
498 2 4.57428900812499911e-07
499 2 4.57419725406249956e-07
500 2 4.57417087939462344e-07
501 2 4.57415137703124925e-07
502 2 4.57412843851562410e-07
503 2 4.57415472182739856e-07
504 2 4.57375587499999965e-07
505 2 4.57392648749999995e-07
506 2 4.57401179375000010e-07
507 2 4.57405444687500017e-07
508 2 4.57410842255948212e-07
509 2 4.57407577343750021e-07
510 2 4.57411010980818177e-07
511 2 4.57408643671874970e-07
512 2 4.35886188183989224e-07
513 2 4.40903218930958359e-07
514 2 4.41205540999999990e-07
515 2 4.41267336812172728e-07
516 2 4.41418735500000010e-07
517 2 4.41449396855138211e-07
518 2 4.41525332750000047e-07
519 2 4.41540429075405668e-07
520 2 4.41578631375000039e-07
521 2 4.41585949582831084e-07
522 2 4.41605280687500035e-07
523 2 4.41608718639221040e-07
524 2 4.41618605343750033e-07
525 2 4.41620120791032812e-07
526 2 4.41625267671875005e-07
527 2 4.41625857307006533e-07
528 2 4.41628598835937518e-07
529 2 4.57408352424989803e-07
530 2 4.57406511015625019e-07
531 2 4.57420818052945520e-07
532 2 4.57412614986476670e-07
533 2 4.57413855276855815e-07
534 2 4.57421462488097321e-07
535 2 4.57427654548961365e-07
536 2 4.57429170650035101e-07
537 2 4.57424009367638835e-07
538 2 4.35888481954942049e-07
539 2 4.35901910592734518e-07
540 2 4.35908686062979641e-07
541 2 4.35938871000000005e-07
542 2 4.35911785500000062e-07
543 2 4.35898242750000037e-07
544 2 4.35891471375000024e-07
545 2 4.35897450724544353e-07
546 2 4.35893834008670923e-07
547 2 4.41617788816305586e-07
548 2 4.41624301509317302e-07
549 2 4.41629963500000044e-07
550 2 4.57432913825975251e-07
551 2 4.57417579492286160e-07
552 2 4.57497653784870387e-07
553 2 4.57464206317117468e-07
554 2 4.57447339678556392e-07
555 2 4.57436530097717490e-07
556 2 4.57460017881228756e-07
557 2 4.57451760328278354e-07
558 2 4.41454747393623609e-07
559 2 4.41539134340896778e-07
560 2 4.41581403389091805e-07
561 2 4.41602690014435242e-07
562 2 4.57433355679406591e-07
563 2 4.57445706327183944e-07
564 2 4.57464024225992368e-07
565 2 4.35932507926309092e-07
566 2 4.57489027168049557e-07
567 2 4.41588420565398315e-07
568 2 4.57564188532102525e-07
569 2 4.57527571724773454e-07
570 2 4.57448932715875825e-07
571 2 4.57447773189668708e-07
572 2 4.41553245624636611e-07
573 2 4.35957230281954773e-07
574 2 4.57475770241566808e-07
575 2 4.41938114000000039e-07
576 2 4.41783533000000034e-07
577 2 4.41679067911768366e-07
578 2 4.41706242500000031e-07
579 2 4.41648321595029301e-07
580 2 4.41667597250000003e-07
581 2 4.41648274625000015e-07
582 2 4.41676400258126500e-07
583 2 4.41686919874999990e-07
584 2 4.41744887750000059e-07
585 2 4.57578810967106720e-07
586 2 4.57561785311365439e-07
587 2 4.35987139268569345e-07
588 2 4.41471400038648411e-07
589 2 4.57504542685734024e-07
590 2 4.36154435007011625e-07
591 2 4.36061840113875962e-07
592 2 4.57709396878897235e-07
593 2 4.57633701099569551e-07
594 2 4.41690231955760608e-07
595 2 4.57590371626512451e-07
596 2 4.57531876434571495e-07
597 2 4.41606448982714947e-07
598 2 4.35980935292435816e-07
599 2 4.36055905601746840e-07
600 2 4.41541855487342551e-07
601 2 4.57675623100206920e-07
602 2 4.41524598608614615e-07
603 2 4.41511273025316756e-07
604 2 4.41315250253358101e-07
605 2 4.57456263763381791e-07
606 2 4.41798302724951604e-07
607 2 4.41860823500000037e-07
608 2 4.54722395937499974e-07
609 2 4.55130555000000028e-07
610 2 4.54919310940497142e-07
611 2 4.54846354312499977e-07
612 2 4.54851843032778628e-07
613 2 4.54815364718749976e-07
614 2 4.54799869921875002e-07
615 2 4.54849098672813871e-07
616 2 4.54830859515624950e-07
617 2 4.54832231695629881e-07
618 2 4.54823112117187490e-07
619 2 4.54823798208728088e-07
620 2 4.54819238417968707e-07
621 2 4.54817301568359368e-07
622 2 4.54821175267578098e-07
623 2 4.54826128585259996e-07
624 2 4.54831545606162714e-07
625 2 4.54826985816406220e-07
626 2 4.54825048966796828e-07
627 2 4.54828922666015612e-07
628 2 4.54839010669526523e-07
629 2 4.54838606914062464e-07
630 2 4.54844187135079901e-07
631 2 4.54834733214843733e-07
632 2 4.54843942919384617e-07
633 2 4.54837246876285896e-07
634 2 4.54819949351127628e-07
635 2 4.54807617320312463e-07
636 2 4.54820363449555629e-07
637 2 4.54811491019531246e-07
638 2 4.54836422552515680e-07
639 2 4.54890303666581531e-07
640 2 4.55009027500000068e-07
641 2 4.54867970390857627e-07
642 2 4.54879132941967641e-07
643 2 4.54860430598829857e-07
644 2 4.54850258308596453e-07
645 2 4.54860873250111652e-07
646 2 4.54836613788981820e-07
647 2 4.54877343906249978e-07
648 2 4.54890207400963085e-07
649 2 4.54976991178657253e-07
650 2 4.54939416536663845e-07
651 2 4.54948263750000062e-07
652 2 4.54901232572717991e-07
653 2 4.54887878019953976e-07
654 2 4.54956850443079283e-07
655 2 4.55028638490241919e-07
656 2 4.55125225589591116e-07
657 2 4.55252082499999987e-07
658 2 4.57618189216712677e-07
659 2 4.57569403334215264e-07
660 2 4.36260844969627475e-07
661 2 4.55156250249999984e-07
662 2 4.41820834541973161e-07
663 2 4.57788628538996417e-07
664 2 4.40778530918443405e-07
665 2 4.41154350486025765e-07
666 2 4.58007635347575371e-07
667 2 4.57827311813905281e-07
668 2 4.58193483622960635e-07
669 2 4.55213523338262375e-07
670 2 4.55032291874999981e-07
671 2 4.35808825688086112e-07
672 2 4.35968346972506255e-07
673 2 4.36048572696966765e-07
674 2 4.36089634979389130e-07
675 2 4.36801472940475703e-07
676 2 4.36417749007801571e-07
677 2 4.35336734735913756e-07
678 2 4.35705911046773072e-07
679 2 4.57976291304831614e-07
680 2 4.41065632054869208e-07
681 2 4.41369701609457108e-07
682 2 4.41522265516293696e-07
683 2 4.41599618729496301e-07
684 2 4.30289523312072389e-07
685 2 4.30560019536916055e-07
686 2 4.30695726330555739e-07
687 2 4.30764508069187261e-07
688 2 4.61016732499999987e-07
689 2 4.61894454999999976e-07
690 2 4.06098749977136498e-07
691 2 4.06412509999999997e-07
692 2 4.05956790270778824e-07
693 2 4.06190285000000041e-07
694 2 4.41005966501285144e-07
695 2 4.35104160000000027e-07
696 2 4.36538442233619975e-07
697 2 4.40995314973637731e-07
698 2 4.40363598942666814e-07
699 2 4.61244184676202552e-07
700 2 4.61285214187767431e-07
701 2 4.54553799034106861e-07
702 2 4.58301857065698556e-07
703 2 4.58376217217275221e-07
704 2 4.02119844988950002e-07
705 2 4.00603865518644327e-07
706 2 3.99843512462020573e-07
707 2 3.99458557317300300e-07
708 2 3.84801443611089853e-07
709 2 3.84661537277198594e-07
710 2 3.84446286114796104e-07
711 2 3.84846756557004518e-07
712 2 3.85049256352688185e-07
713 2 4.33657188373647194e-07
714 2 4.36683327326150740e-07
715 2 4.38199058867108175e-07
716 2 4.38962281692775407e-07
717 2 4.43457027135175067e-07
718 2 4.43113879999999995e-07
719 2 4.07367350605447448e-07
720 2 4.09781044799698082e-07
721 2 4.10992222628876293e-07
722 2 4.11606582748797355e-07
723 2 4.59174873441649646e-07
724 2 4.59883098999999978e-07
725 2 4.05029776392007168e-07
726 2 4.05547319758838703e-07
727 2 4.42183074594403875e-07
728 2 4.60047088216170503e-07
729 2 4.58935843337704479e-07
730 2 4.58372295082172209e-07
731 2 4.56696614152251637e-07
732 2 4.55923037514652429e-07
733 2 4.56974963717386666e-07
734 2 4.38640125952611097e-07
735 2 4.63718528546095727e-07
736 2 4.64597653410776649e-07
737 2 4.00842343542857126e-07
738 2 4.00684176376095830e-07
739 2 4.00130557999999983e-07
740 2 3.86058886570386203e-07
741 2 3.85833339500000052e-07
742 2 3.86159306785235523e-07
743 2 3.86046533250000096e-07
744 2 3.86153130125000065e-07
745 2 3.85939936375000074e-07
746 2 3.86383803114462289e-07
747 2 3.86443061500000053e-07
748 2 3.86768055000000000e-07
749 2 3.86464229408818621e-07
750 2 3.86697225499999983e-07
751 2 3.85732919285185089e-07
752 2 3.85620145750000007e-07
753 2 3.85726742625000029e-07
754 2 3.85513548874999985e-07
755 2 3.85665378974827615e-07
756 2 3.85407353135207569e-07
757 2 3.86052169914239108e-07
758 2 3.85923068963042119e-07
759 2 3.86438991973744263e-07
760 2 3.86402049671767736e-07
761 2 3.80884854652900287e-07
762 2 3.96918109074023062e-07
763 2 4.49647676300547665e-07
764 2 4.49081428201084974e-07
765 2 4.48795604999999934e-07
766 2 4.56315017733917602e-07
767 2 4.56029644000000020e-07
768 2 4.56317329500000000e-07
769 2 3.80186620335869408e-07
770 2 3.81672225533890081e-07
771 2 3.86433992070126786e-07
772 2 3.86808704373914507e-07
773 2 3.87175006999999997e-07
774 2 4.01983331735313712e-07
775 2 4.01347416125919310e-07
776 2 4.39113779274585069e-07
777 2 4.05696134607179149e-07
778 2 4.03724024796501824e-07
779 2 4.03172647404753367e-07
780 2 4.45150964343795680e-07
781 2 4.44284507544189654e-07
782 2 4.60000660995953941e-07
783 2 4.60656988449488863e-07
784 2 4.29508421916245891e-07
785 2 4.29815292499999990e-07
786 2 4.30135249647356136e-07
787 2 4.31828413136165824e-07
788 2 4.31966667000000055e-07
789 2 4.31376938333269559e-07
790 2 4.31475696500000109e-07
791 2 4.31180832166625384e-07
792 2 4.31230211250000082e-07
793 2 4.31082779083325320e-07
794 2 4.31107468625000069e-07
795 2 4.31033752541612528e-07
796 2 4.31046097312500115e-07
797 2 4.31015411656250086e-07
798 2 4.31076782968750092e-07
799 2 4.30973454983525567e-07
800 2 4.31168839937500076e-07
801 2 4.31007958016609466e-07
802 2 4.30829601500000037e-07
803 2 4.30907163750000047e-07
804 2 4.30850427051524628e-07
805 2 4.31068222592792425e-07
806 2 4.30912640993611132e-07
807 2 4.31125471031302532e-07
808 2 4.31352953875000095e-07
809 2 4.30724787864016152e-07
810 2 4.30425211231142813e-07
811 2 4.31671802666608708e-07
812 2 4.31721181750000082e-07
813 2 4.31598439125000122e-07
814 2 4.31819234833290406e-07
815 2 4.31843924375000042e-07
816 2 4.31782553062500089e-07
817 2 4.31905295687500049e-07
818 2 4.31882753653198729e-07
819 2 4.31731182797149604e-07
820 2 4.31506251571774910e-07
821 2 4.32457637500000055e-07
822 2 4.32145241077088267e-07
823 2 4.32212152250000082e-07
824 2 4.32030691976403575e-07
825 2 4.32089409625000069e-07
826 2 4.32219767235165665e-07
827 2 4.32305450177966066e-07
828 2 4.31295438806024190e-07
829 2 4.30028980949074953e-07
830 2 4.30244884749999978e-07
831 2 4.57255553999999972e-07
832 2 4.39854545541826470e-07
833 2 4.12999820603160080e-07
834 2 4.16169272800418878e-07
835 2 4.17759493130537535e-07
836 2 4.18565726229925587e-07
837 2 4.64756992415131994e-07
838 2 4.64585399499999994e-07
839 2 4.47872637263057076e-07
840 2 4.66862681208122583e-07
841 2 4.64689016571925319e-07
842 2 4.65588102605165997e-07
843 2 4.34238343413727182e-07
844 2 4.33607043694399195e-07
845 2 4.27244431018034641e-07
846 2 4.13017359078240728e-07
847 2 4.03498608999999964e-07
848 2 4.03773609499999986e-07
849 2 3.99909737076997238e-07
850 2 3.93801486263781078e-07
851 2 3.94221653604874016e-07
852 2 4.15229364528837677e-07
853 2 4.14912509500000051e-07
854 2 4.16690517686760527e-07
855 2 4.17965023796572523e-07
856 2 4.18616087773682348e-07
857 2 4.51316032500000002e-07
858 2 4.58584347477908073e-07
859 2 4.67237364062154550e-07
860 2 4.64228189109948387e-07
861 2 4.65731873697162319e-07
862 2 4.66500547159118501e-07
863 2 4.67224400899711882e-07
864 2 4.67391261199115502e-07
865 2 4.16202882156784694e-07
866 2 4.15159751029086122e-07
867 2 3.99411304842189262e-07
868 2 3.98837509000000007e-07
869 2 4.01214501672408317e-07
870 2 4.00657888924699573e-07
871 2 4.33849086500000005e-07
872 2 4.32905400739337015e-07
873 2 4.29564803791276999e-07
874 2 4.57673230816561055e-07
875 2 4.58951642103806949e-07
876 2 4.59600365842757562e-07
877 2 4.50205420295074213e-07
878 2 4.49513493066279770e-07
879 2 3.94063391931233622e-07
880 2 3.95426008298665841e-07
881 2 3.96119897142534337e-07
882 2 3.97929474323457810e-07
883 2 3.97872519112785224e-07
884 2 3.97392650596881213e-07
885 2 3.85362657102871312e-07
886 2 3.85316878657580174e-07
887 2 4.60850608653920429e-07
888 2 4.60530800953376133e-07
889 2 4.10188434379326850e-07
890 2 4.11809592230683370e-07
891 2 4.12632969119478001e-07
892 2 3.84244323902654282e-07
893 2 4.00292105803566293e-07
894 2 3.99827306999999973e-07
895 2 3.98382950024587942e-07
896 2 3.96809750927685000e-07
897 2 3.96085218776140802e-07
898 2 3.98765210257285469e-07
899 2 4.57679172072988584e-07
900 2 4.57037505000000024e-07
901 2 4.39157718898308355e-07
902 2 4.40046868052901437e-07
903 2 4.36474302048677850e-07
904 2 4.38351567812679380e-07
905 2 4.37489801558450888e-07
906 2 4.38886909184380695e-07
907 2 4.51202023518670087e-07
908 2 4.56824544809240246e-07
909 2 4.59638657394694381e-07
910 2 4.61051437870245555e-07
911 2 4.61769441109895294e-07
912 2 4.38655525300316754e-07
913 2 4.47830196677569954e-07
914 2 4.44615696430188259e-07
915 2 4.43002675250258636e-07
916 2 4.42184476219405347e-07
917 2 4.18089516642106718e-07
918 2 4.15230657012209127e-07
919 2 4.13794293669331480e-07
920 2 4.13062006715734097e-07
921 2 4.51533620812589434e-07
922 2 4.52195973418648353e-07
923 2 4.65203222362359052e-07
924 2 4.69578901320704869e-07
925 2 4.63616086999999959e-07
926 2 4.63121649230195530e-07
927 2 4.45129461901999899e-07
928 2 4.45863952340612263e-07
929 2 4.46239103040268138e-07
930 2 4.59912464421538584e-07
931 2 4.59914664999999975e-07
932 2 3.91708013136289610e-07
933 2 4.06986968229845917e-07
934 2 4.02596151051690377e-07
935 2 4.07259792084975135e-07
936 2 4.41969688931105427e-07
937 2 4.41164438257709000e-07
938 2 4.68207768794363153e-07
939 2 4.68365809999999999e-07
940 2 4.68063809914800477e-07
941 2 4.04362223422911288e-07
942 2 4.04132232948788395e-07
943 2 3.91120713103350953e-07
944 2 3.90197757726699268e-07
945 2 4.59964441088154226e-07
946 2 4.59632268015766475e-07
947 2 4.47415824207024340e-07
948 2 4.59325962375687052e-07
949 2 4.61183659165614624e-07
950 2 4.62187104933027823e-07
951 2 4.62128608058915962e-07
952 2 4.16653064213502873e-07
953 2 4.18777385402093355e-07
954 2 4.19850943289688468e-07
955 2 4.40143142440729386e-07
956 2 4.37875991920399887e-07
957 2 4.56559062798796213e-07
958 2 4.55376968980604331e-07
959 2 4.54783442031367951e-07
960 2 4.54481644882647995e-07
961 2 4.53927401725685192e-07
962 2 4.55747943272563599e-07
963 2 4.57286444195398012e-07
964 2 4.58071915577808908e-07
965 2 4.56612880252163272e-07
966 2 4.57968179553023870e-07
967 2 4.33362015150589132e-07
968 2 4.32955844649316656e-07
969 2 4.66236452812976577e-07
970 2 4.66021751598553012e-07
971 2 4.57348436089676007e-07
972 2 4.17910002402768953e-07
973 2 4.18108616043324556e-07
974 2 4.18488170100028784e-07
975 2 4.19163894999999997e-07
976 2 4.13013782258609242e-07
977 2 4.14043386884438737e-07
978 2 4.14569213327089068e-07
979 2 4.17275824988469166e-07
980 2 4.16249963902924373e-07
981 2 3.92853361753220386e-07
982 2 4.04764872564316031e-07
983 2 4.28216530691201826e-07
984 2 4.67433971470143893e-07
985 2 4.65440496500000018e-07
986 2 4.60190349046238882e-07
987 2 4.60585087638944417e-07
988 2 4.44496920785295827e-07
989 2 4.04031275494969068e-07
990 2 4.02646655134967353e-07
991 2 4.02113246355169929e-07
992 2 4.01483040793802097e-07
993 2 4.01561549275413356e-07
994 2 4.58632922192058775e-07
995 2 4.58166966068424948e-07
996 2 4.59386777251729134e-07
997 2 4.43317787814200621e-07
998 2 4.10331783395886052e-07
999 2 4.11427764999999965e-07
1000 2 4.10829709302536012e-07
1001 2 4.11772107485312034e-07
1002 2 4.39030776263619619e-07
1003 2 4.39459724499999999e-07
1004 2 4.38801820418456692e-07
1005 2 4.39241072518775101e-07
1006 2 4.56034035944510465e-07
1007 2 4.56644194852803847e-07
1008 2 4.58601982544577526e-07
1009 2 4.18204643175316742e-07
1010 2 4.49761685289366092e-07
1011 2 4.40502193451112087e-07
1012 2 4.41315849926186020e-07
1013 2 4.40086693709682095e-07
1014 2 4.53143456471946571e-07
1015 2 3.91074140080868409e-07
1016 2 3.90165921896231353e-07
1017 2 4.34873829020737321e-07
1018 2 4.11801528345026171e-07
1019 2 4.11182291226292216e-07
1020 2 4.10865863181575595e-07
1021 2 3.87022655119145431e-07
1022 2 3.87428886490880214e-07
1023 2 3.99492303790622911e-07
1024 2 3.98895835999999988e-07
1025 2 4.41724183634765267e-07
1026 2 3.88548017403007822e-07
1027 2 3.85927876943613378e-07
1028 2 3.86263826499699703e-07
1029 2 4.12630680673718771e-07
1030 2 4.10071382341373550e-07
1031 2 3.91266268999294846e-07
1032 2 4.54055553673478165e-07
1033 2 4.53813105984702005e-07
1034 2 4.50492249128012471e-07
1035 2 4.51693757538608147e-07
1036 2 4.41791628206564565e-07
1037 2 4.40532976624270572e-07
1038 2 4.41476409717247968e-07
1039 2 4.37087857116614216e-07
1040 2 4.38159108368676379e-07
1041 2 4.38370838000000049e-07
1042 2 4.07628125639279514e-07
1043 2 4.06229930776365904e-07
1044 2 4.04752650509576396e-07
1045 2 4.03260286229982790e-07
1046 2 4.01833842401071589e-07
1047 2 4.02498680946572699e-07
1048 2 4.61472400970290257e-07
1049 2 4.60647070275140069e-07
1050 2 4.15778478823645963e-07
1051 2 4.16925241938582343e-07
1052 2 4.17159496739834981e-07
1053 2 4.18002392346419223e-07
1054 2 4.17788109749439353e-07
1055 2 4.19156952499999959e-07
1056 2 4.58213961373934705e-07
1057 2 4.53170438192853866e-07
1058 2 4.41836639513293842e-07
1059 2 4.41260101658487878e-07
1060 2 4.60832168011754495e-07
1061 2 4.48536614400639508e-07
1062 2 3.90842741984707527e-07
1063 2 4.67842055239982727e-07
1064 2 4.09877289972654155e-07
1065 2 4.08428119845754104e-07
1066 2 4.45181867921202715e-07
1067 2 4.13598756383022990e-07
1068 2 4.43764863602754849e-07
1069 2 4.46417357116821399e-07
1070 2 4.46967409082564969e-07
1071 2 4.43162121648119036e-07
1072 2 4.42972990497203359e-07
1073 2 4.62401861354228900e-07
1074 2 4.37789804224958062e-07
1075 2 4.36942938485362912e-07
1076 2 3.96455555000000014e-07
1077 2 3.95731560791764741e-07
1078 2 3.82494622685939262e-07
1079 2 3.96349988026314384e-07
1080 2 3.95164235759734300e-07
1081 2 4.49086468657060668e-07
1082 2 4.14857092616020788e-07
1083 2 4.13928821410003558e-07
1084 2 4.32829103744129741e-07
1085 2 4.31525838366971191e-07
1086 2 4.32954373078444942e-07
1087 2 4.18553781070922548e-07
1088 2 4.44686158741127604e-07
1089 2 4.28233253023885706e-07
1090 2 4.44643093238487195e-07
1091 2 4.44427413500000004e-07
1092 2 4.64612388123698266e-07
1093 2 4.65206292708857962e-07
1094 2 4.66259757969119366e-07
1095 2 4.58781834923961292e-07
1096 2 4.45984892837238267e-07
1097 2 4.26648969597676285e-07
1098 2 4.23396036816353692e-07
1099 2 4.22679138477400495e-07
1100 2 4.21476586498566283e-07
1101 2 4.09207220004206971e-07
1102 2 4.27226328421222141e-07
1103 2 4.25379373207300160e-07
1104 2 4.63322594558248375e-07
1105 2 4.30790889714713646e-07
1106 2 4.15649143829552842e-07
1107 2 3.81029895437424709e-07
1108 2 4.04483002836176649e-07
1109 2 4.01028985370993293e-07
1110 2 4.02044514737962085e-07
1111 2 4.05250685595565438e-07
1112 2 4.06458942312313252e-07
1113 2 3.89908840635488748e-07
1114 2 4.56011551699222713e-07
1115 2 4.11598454381297556e-07
1116 2 4.09304619606167183e-07
1117 2 4.06874578210239639e-07
1118 2 4.17944020646271706e-07
1119 2 4.21233071356143251e-07
1120 2 4.20048843964806835e-07
1121 2 4.13361257750275259e-07
1122 2 4.57051913970991174e-07
1123 2 4.55652017374929544e-07
1124 2 4.64885492672309302e-07
1125 2 4.58374951882726923e-07
1126 2 4.56776443711155051e-07
1127 2 4.58326612134892955e-07
1128 2 3.89970536496634981e-07
1129 2 4.05880387418684104e-07
1130 2 4.02743874670827796e-07
1131 2 4.22190079541741063e-07
1132 2 4.23948496809002099e-07
1133 2 4.24846849963605381e-07
1134 2 4.39177287026654907e-07
1135 2 4.40065871112730080e-07
1136 2 4.12872041037248442e-07
1137 2 4.50610996929026209e-07
1138 2 4.01874463723479244e-07
1139 2 4.68778165383559925e-07
1140 2 4.64311840246313433e-07
1141 2 4.01993839210097276e-07
1142 2 4.01365604882378456e-07
1143 2 4.64199640804768761e-07
1144 2 4.61828437248033265e-07
1145 2 4.67302077343200412e-07
1146 2 4.67523292299674510e-07
1147 2 4.68740409952039888e-07
1148 2 4.67475219480912348e-07
1149 2 4.68598302876520899e-07
1150 2 4.25049080403795544e-07
1151 2 4.23958339499999898e-07
1152 2 4.68636808210291078e-07
1153 2 4.60882356308141803e-07
1154 2 4.61816681085026669e-07
1155 2 4.60543202513439280e-07
1156 2 4.03568528475613143e-07
1157 2 4.02349367980007518e-07
1158 2 4.34603404756132442e-07
1159 2 4.37129640540846063e-07
1160 2 4.38415190519896117e-07
1161 2 4.36075275830774346e-07
1162 2 4.37666280055879961e-07
1163 2 4.23095267963521001e-07
1164 2 4.25726169321078494e-07
1165 2 4.03415135420102960e-07
1166 2 3.90068811003606640e-07
1167 2 4.52114788458122317e-07
1168 2 4.55228224442517325e-07
1169 2 4.56692253748778041e-07
1170 2 4.56811284995601968e-07
1171 2 4.48073348975072443e-07
1172 2 4.47725323606642219e-07
1173 2 4.45839871594878368e-07
1174 2 4.46417465626845421e-07
1175 2 4.44022216499999969e-07
1176 2 4.44858407237710128e-07
1177 2 4.45666564131880617e-07
1178 2 4.05654558415319947e-07
1179 2 4.06349985286321681e-07
1180 2 4.08294698593313288e-07
1181 2 4.06157653882061718e-07
1182 2 4.21691211099138706e-07
1183 2 4.28986659897520911e-07
1184 2 4.59449953059329830e-07
1185 2 4.43771426526571790e-07
1186 2 4.18638803907739316e-07
1187 2 4.17250354738980310e-07
1188 2 4.15048229790150908e-07
1189 2 4.15319640196578037e-07
1190 2 4.50223861892985538e-07
1191 2 3.94497100838208460e-07
1192 2 4.13768396721681901e-07
1193 2 4.65111419674267580e-07
1194 2 4.65965275782410311e-07
1195 2 4.38262500499999973e-07
1196 2 4.39396840240961606e-07
1197 2 4.52612676397770795e-07
1198 2 3.92652588400141994e-07
1199 2 3.88422398957741474e-07
1200 2 4.11752072499999965e-07
1201 2 4.03860901455910247e-07
1202 2 4.03235148615810507e-07
1203 2 4.03818053999999954e-07
1204 2 4.20356997402692538e-07
1205 2 4.20753799504584007e-07
1206 2 4.68989797262514699e-07
1207 2 4.00138919538782019e-07
1208 2 4.06236324045679821e-07
1209 2 4.57468648320739559e-07
1210 2 4.18434826906495936e-07
1211 2 4.44300680473571945e-07
1212 2 4.42898313819505168e-07
1213 2 4.43075438885451969e-07
1214 2 4.44017236974641591e-07
1215 2 4.46296170765614231e-07
1216 2 4.45105266039458421e-07
1217 2 4.46045728394023807e-07
1218 2 4.45442543094569651e-07
1219 2 4.46670887055774264e-07
1220 2 4.48033784237331575e-07
1221 2 4.44751516493057140e-07
1222 2 4.19633544793247464e-07
1223 2 4.56341885587114036e-07
1224 2 4.06718409803124537e-07
1225 2 4.04808034993274349e-07
1226 2 4.05145316912078726e-07
1227 2 4.04017081785259298e-07
1228 2 4.02995833999999971e-07
1229 2 4.03896466045413303e-07
1230 2 4.04737904855026162e-07
1231 2 4.07213355712003242e-07
1232 2 4.07995834499999925e-07
1233 2 4.67175763864995778e-07
1234 2 4.67430405260114856e-07
1235 2 4.64217979391019034e-07
1236 2 4.65837049145849687e-07
1237 2 4.67899895586785665e-07
1238 2 4.66539376837597695e-07
1239 2 4.65278027335284371e-07
1240 2 4.21706166207045079e-07
1241 2 4.22473579194690586e-07
1242 2 4.23044182888254161e-07
1243 2 4.52843797869551616e-07
1244 2 4.53109779804935044e-07
1245 2 4.54420739003177746e-07
1246 2 4.54796868952046071e-07
1247 2 4.51259745227549003e-07
1248 2 4.64849967644996342e-07
1249 2 4.60515538399726188e-07
1250 2 4.62581080412131878e-07
1251 2 4.63670576897970432e-07
1252 2 4.62359492867491310e-07
1253 2 4.63465800316564288e-07
1254 2 4.63739716369080655e-07
1255 2 4.62113944945511023e-07
1256 2 4.60576632869601317e-07
1257 2 4.61791786625657050e-07
1258 2 4.58525843136278362e-07
1259 2 4.57217504737273477e-07
1260 2 4.58059876788567173e-07
1261 2 4.58449299323192545e-07
1262 2 4.57466231338328960e-07
1263 2 4.59322362197986121e-07
1264 2 4.57994870949235702e-07
1265 2 4.58966880871478051e-07
1266 2 4.60659595224109205e-07
1267 2 4.58188822643444307e-07
1268 2 4.15841946335869437e-07
1269 2 4.14624980285319080e-07
1270 2 4.15360436468997248e-07
1271 2 4.15090740171651257e-07
1272 2 4.17307291834566253e-07
1273 2 4.16114066777066826e-07
1274 2 4.16850688717099031e-07
1275 2 4.15702370222844116e-07
1276 2 4.16650334431452070e-07
1277 2 4.18328533728393264e-07
1278 2 4.17108780614741337e-07
1279 2 4.18280169120110690e-07
1280 2 4.20043652330605278e-07
1281 2 4.17104916143742909e-07
1282 2 4.15404377506433505e-07
1283 2 4.18461694930657288e-07
1284 2 4.14906382985053848e-07
1285 2 4.48582731929251647e-07
1286 2 4.51249299049220150e-07
1287 2 4.16412846431087104e-07
1288 2 4.17312934607136777e-07
1289 2 4.18316856969571543e-07
1290 2 4.16507714817988434e-07
1291 2 4.16117207458706593e-07
1292 2 4.17158042209713290e-07
1293 2 4.21138669024179151e-07
1294 2 4.19114737231603931e-07
1295 2 4.18024860294997999e-07
1296 2 4.18429357153747828e-07
1297 2 4.18698509696095860e-07
1298 2 4.21298269282303073e-07
1299 2 4.19825447260873835e-07
1300 2 4.20927759494871662e-07
1301 2 4.19811908184468302e-07
1302 2 4.24894096759434200e-07
1303 2 4.22931637082969417e-07
1304 2 4.22035153053578943e-07
1305 2 4.23584904200432281e-07
1306 2 4.21872800636656748e-07
1307 2 4.22730181580594177e-07
1308 2 4.19838385303364212e-07
1309 2 4.19293707214381331e-07
1310 2 4.20626323210233608e-07
1311 2 4.21748645677484727e-07
1312 2 4.18497331375789292e-07
1313 2 4.18847038058122472e-07
1314 2 4.17326395780761716e-07
1315 2 4.16765237362912722e-07
1316 2 4.16464186827595344e-07
1317 2 4.21848385656129827e-07
1318 2 4.23629559128162733e-07
1319 2 4.14209408198090379e-07
1320 2 4.16729318594141958e-07
1321 2 4.57754048097773912e-07
1322 2 3.91801071019721860e-07
1323 2 3.91066821053345317e-07
1324 2 3.92424913434891329e-07
1325 2 3.93145564692216658e-07
1326 2 3.92705320362391126e-07
1327 2 3.93760732547670442e-07
1328 2 3.93923193422742456e-07
1329 2 3.91296057131455444e-07
1330 2 3.92391473849366554e-07
1331 2 3.91587652503456300e-07
1332 2 4.59041194841331201e-07
1333 2 4.67661882799150960e-07
1334 2 4.65745296173168350e-07
1335 2 4.65434348956643725e-07
1336 2 4.62800584668702008e-07
1337 2 4.63216235701684571e-07
1338 2 4.62056519643493387e-07
1339 2 4.64460862099810254e-07
1340 2 4.11501333357787634e-07
1341 2 4.08305877838065311e-07
1342 2 4.08363591184657247e-07
1343 2 4.08997103188513584e-07
1344 2 4.11359829730905432e-07
1345 2 4.09879830695956978e-07
1346 2 4.10387155364772688e-07
1347 2 4.12739055622625321e-07
1348 2 4.11762367496901594e-07
1349 2 4.14111098657674080e-07
1350 2 4.12706636709976314e-07
1351 2 4.13412109573146824e-07
1352 2 4.14249927549662649e-07
1353 2 4.13302093562471749e-07
1354 2 4.13405587699367126e-07
1355 2 4.12172061796757706e-07
1356 2 4.10682628013041633e-07
1357 2 4.11694200568683830e-07
1358 2 4.15060924202683102e-07
1359 2 4.12935315410283532e-07
1360 2 4.12006872712605355e-07
1361 2 4.10336272642324761e-07
1362 2 4.10872258202684354e-07
1363 2 4.11855336412043789e-07
1364 2 4.11349730395658050e-07
1365 2 4.08455402751086656e-07
1366 2 4.09690957794904411e-07
1367 2 4.09444759880247436e-07
1368 2 4.07621892620135983e-07
1369 2 4.07947819365503266e-07
1370 2 4.08686105936977306e-07
1371 2 4.07228084763513870e-07
1372 2 4.07025900953766843e-07
1373 2 4.05937746464175137e-07
1374 2 4.10354263120733771e-07
1375 2 4.09643806585827994e-07
1376 2 4.09234985981065479e-07
1377 2 4.58106115192003529e-07
1378 2 4.08761862313586837e-07
1379 2 4.08085282150276756e-07
1380 2 4.56207669387214383e-07
1381 2 4.57163758535726183e-07
1382 2 3.80825301070462663e-07
1383 2 4.25097704843105624e-07
1384 2 4.23951716571653496e-07
1385 2 4.23895809937378138e-07
1386 2 4.25410546344398108e-07
1387 2 4.25087466793762486e-07
1388 2 4.45150273237083328e-07
1389 2 4.66137217169192482e-07
1390 2 4.46479793253853182e-07
1391 2 4.30380774949640475e-07
1392 2 4.35012330911528587e-07
1393 2 4.35739021240919151e-07
1394 2 4.34272135984902858e-07
1395 2 4.33234915253730953e-07
1396 2 4.42264422383810525e-07
1397 2 4.41358108500000050e-07
1398 2 4.45162588033227317e-07
1399 2 4.07724991500000002e-07
1400 2 4.09113845913393122e-07
1401 2 4.49997947753309013e-07
1402 2 4.48676590973894908e-07
1403 2 4.40746092095025911e-07
1404 2 4.41547252870613409e-07
1405 2 4.47379558637970933e-07
1406 2 4.44492949183552763e-07
1407 2 4.43005533038815328e-07
1408 2 4.43580979205724408e-07
1409 2 4.43935686331273697e-07
1410 2 4.46778311420838892e-07
1411 2 4.45637937197168405e-07
1412 2 4.43130187865183237e-07
1413 2 4.42676797298324864e-07
1414 2 4.40624419997915006e-07
1415 2 4.39513507054324100e-07
1416 2 4.39396800051958288e-07
1417 2 4.40668036458026459e-07
1418 2 4.34660388360459351e-07
1419 2 4.35968715250841293e-07
1420 2 4.34484364449080363e-07
1421 2 4.35526512523311443e-07
1422 2 4.35995593996172303e-07
1423 2 4.34380773446313149e-07
1424 2 4.35750250383489483e-07
1425 2 4.34918487860512150e-07
1426 2 4.33249675157142324e-07
1427 2 4.37332591258473786e-07
1428 2 3.85828698415277434e-07
1429 2 3.92087028439886634e-07
1430 2 3.93207600209677012e-07
1431 2 4.60122046931646487e-07
1432 2 4.61385607054163816e-07
1433 2 4.61487608184658043e-07
1434 2 4.62232334213164126e-07
1435 2 4.61011686341315736e-07
1436 2 4.59903795996529906e-07
1437 2 4.63022472764004548e-07
1438 2 4.64541700800801706e-07
1439 2 4.63462590188168443e-07
1440 2 4.62154718323513654e-07
1441 2 4.31558816576516062e-07
1442 2 4.31616414520645806e-07
1443 2 4.63405306347043544e-07
1444 2 4.28552471802279246e-07
1445 2 4.29829430772975297e-07
1446 2 4.30555095594617242e-07
1447 2 4.27029396568492210e-07
1448 2 4.25584193953075430e-07
1449 2 4.24807581795235946e-07
1450 2 4.23976961640177658e-07
1451 2 4.26414814108173000e-07
1452 2 4.27362534050883880e-07
1453 2 4.27800056701292403e-07
1454 2 4.30424540688992233e-07
1455 2 4.29459177906730838e-07
1456 2 4.28875165767639170e-07
1457 2 4.29787015428211799e-07
1458 2 4.29714276891348177e-07
1459 2 4.28374268228238415e-07
1460 2 4.27895416378675510e-07
1461 2 4.31617667814286604e-07
1462 2 4.30950147636078050e-07
1463 2 4.32533420893249964e-07
1464 2 4.33196549086590765e-07
1465 2 4.31803830818880866e-07
1466 2 4.31869089035623022e-07
1467 2 4.32251040563269111e-07
1468 2 4.33328059691509999e-07
1469 2 4.30826740866101757e-07
1470 2 4.30582838533124026e-07
1471 2 4.32689997153594213e-07
1472 2 4.29634589544941228e-07
1473 2 4.32541324226901458e-07
1474 2 4.34216189012124085e-07
1475 2 4.30497754060204616e-07
1476 2 4.31112337820839784e-07
1477 2 4.32745617030132128e-07
1478 2 4.29367969170537303e-07
1479 2 4.29923952625128808e-07
1480 2 4.32039885333636328e-07
1481 2 4.31974757217095359e-07
1482 2 4.33381760652730166e-07
1483 2 4.34050706798319890e-07
1484 2 4.33341101822175294e-07
1485 2 4.31503088917281834e-07
1486 2 4.32792763903420106e-07
1487 2 4.32018395369514022e-07
1488 2 4.33106104201102292e-07
1489 2 4.31771577400705887e-07
1490 2 4.29354713983120503e-07
1491 2 4.30712382424336595e-07
1492 2 4.29810071808294532e-07
1493 2 4.27610249257046341e-07
1494 2 4.28707626042533915e-07
1495 2 4.27586074324000616e-07
1496 2 4.30512081836205418e-07
1497 2 4.30968138464667421e-07
1498 2 4.32829916358435020e-07
1499 2 4.32182829973215328e-07
1500 2 4.33426417240505116e-07
1501 2 4.33669149597261117e-07
1502 2 4.35291548158233516e-07
1503 2 4.34531861181155878e-07
1504 2 4.34215375541429374e-07
1505 2 4.33210654774587956e-07
1506 2 4.34329283634917572e-07
1507 2 4.34205549195241752e-07
1508 2 4.35582510476361151e-07
1509 2 4.32952322353795473e-07
1510 2 4.33341942540357725e-07
1511 2 4.31112323589281625e-07
1512 2 4.34570641959975105e-07
1513 2 4.34471609000196047e-07
1514 2 4.33541578714597079e-07
1515 2 4.31636105544325102e-07
1516 2 4.38013689082419460e-07
1517 2 4.36183996162177768e-07
1518 2 4.36041947323079384e-07
1519 2 4.37059281473362837e-07
1520 2 4.39240274222996189e-07
1521 2 4.39156324346919260e-07
1522 2 4.38282492746802551e-07
1523 2 4.37478682853541979e-07
1524 2 4.40350539383215962e-07
1525 2 4.39162415756424240e-07
1526 2 4.39297078522978323e-07
1527 2 4.38616135357773960e-07
1528 2 4.39926121955976108e-07
1529 2 4.41186532884400509e-07
1530 2 4.39578795804106157e-07
1531 2 4.38694817173638654e-07
1532 2 4.37434865534138962e-07
1533 2 4.40420645584896717e-07
1534 2 4.40732198795268311e-07
1535 2 4.46900110284106219e-07
1536 2 4.43687504140206740e-07
1537 2 4.42233145236031591e-07
1538 2 4.40949148043395319e-07
1539 2 4.39528533867802822e-07
1540 2 4.40807706960275989e-07
1541 2 4.39664368490999824e-07
1542 2 4.38014833197377257e-07
1543 2 4.41130476801901827e-07
1544 2 4.41700946229880912e-07
1545 2 4.43111599707098425e-07
1546 2 4.38256905435856795e-07
1547 2 4.36932320590169022e-07
1548 2 4.36233275801271414e-07
1549 2 4.36598190759254371e-07
1550 2 4.36003868890745501e-07
1551 2 4.35420756920225918e-07
1552 2 4.35185743388442412e-07
1553 2 4.39387141790896816e-07
1554 2 4.36237537967101462e-07
1555 2 4.38370669491165943e-07
1556 2 4.42619573079760555e-07
1557 2 4.42037546244176251e-07
1558 2 4.41412828725512010e-07
1559 2 4.43137085989689545e-07
1560 2 4.41701668942679544e-07
1561 2 4.42556582421784823e-07
1562 2 4.42272214294952423e-07
1563 2 4.44229833720662174e-07
1564 2 4.42812791512015104e-07
1565 2 4.41661764888315790e-07
1566 2 4.42554297891098009e-07
1567 2 4.43794847003696755e-07
1568 2 4.44637703507794315e-07
1569 2 4.43133654984025907e-07
1570 2 4.45081590698766139e-07
1571 2 4.44204886057151017e-07
1572 2 4.43646339271743138e-07
1573 2 4.44358598504297251e-07
1574 2 4.43042098540929285e-07
1575 2 4.47774126432526658e-07
1576 2 4.46140712785064214e-07
1577 2 4.45473763361113726e-07
1578 2 4.46489751187677004e-07
1579 2 4.45204710965022442e-07
1580 2 4.47494761614877738e-07
1581 2 4.47660467216816320e-07
1582 2 4.46629119754247056e-07
1583 2 4.45756814982584450e-07
1584 2 4.49763255128127736e-07
1585 2 4.49166295054860999e-07
1586 2 4.48568343193699994e-07
1587 2 4.48772654578176438e-07
1588 2 4.47636889804804114e-07
1589 2 4.50093918640321916e-07
1590 2 4.49016810618550418e-07
1591 2 4.47613890692963052e-07
1592 2 4.48606622522132675e-07
1593 2 4.52487468886620115e-07
1594 2 4.55761171358769922e-07
1595 2 4.57596123316134493e-07
1596 2 4.57355629398361805e-07
1597 2 4.56895184969570208e-07
1598 2 4.58134360207188944e-07
1599 2 4.59305760252257661e-07
1600 2 4.58149999746373569e-07
1601 2 4.58770029645425789e-07
1602 2 4.57410596846450674e-07
1603 2 4.60028649384145476e-07
1604 2 4.60085703998259526e-07
1605 2 4.53714504354900966e-07
1606 2 4.55083485796614117e-07
1607 2 4.56214179561646265e-07
1608 2 4.56150057099700079e-07
1609 2 4.55975753488406487e-07
1610 2 4.54560853205931324e-07
1611 2 4.53703609037843058e-07
1612 2 4.55129953590535980e-07
1613 2 4.56355104518464280e-07
1614 2 4.55329821515059957e-07
1615 2 4.56077183162151160e-07
1616 2 4.58574699201343393e-07
1617 2 4.57451288954880223e-07
1618 2 4.58634707626400716e-07
1619 2 4.57309600392386360e-07
1620 2 4.59316010762948931e-07
1621 2 4.58024186294492510e-07
1622 2 4.59921380073829279e-07
1623 2 4.59142842303930092e-07
1624 2 4.56920385693723436e-07
1625 2 4.56724660304970235e-07
1626 2 4.57957641497488786e-07
1627 2 4.59174894409810177e-07
1628 2 4.58245671331651340e-07
1629 2 4.57753034455106488e-07
1630 2 4.56493021963680799e-07
1631 2 4.53601742685672434e-07
1632 2 4.55221824707668467e-07
1633 2 4.54657503060690828e-07
1634 2 4.59136801645836798e-07
1635 2 4.57987523991106265e-07
1636 2 4.59516663495873197e-07
1637 2 4.61752299479379346e-07
1638 2 4.60418584983910336e-07
1639 2 4.61609115941289008e-07
1640 2 4.61321170383081093e-07
1641 2 4.63303788494364112e-07
1642 2 4.60561768522007186e-07
1643 2 4.60130639425698662e-07
1644 2 4.59046299609566459e-07
1645 2 4.59751344428780812e-07
1646 2 4.57162234581804964e-07
1647 2 4.56560882411817072e-07
1648 2 4.57894343047032468e-07
1649 2 4.56300135275985135e-07
1650 2 4.55956381505498955e-07
1651 2 4.53088810145384537e-07
1652 2 4.54694744926997153e-07
1653 2 4.54023821083606892e-07
1654 2 4.51801463489047782e-07
1655 2 4.52783225477838345e-07
1656 2 4.53395483594155916e-07
1657 2 4.51192581639409023e-07
1658 2 4.51964513126578689e-07
1659 2 4.50204131756847283e-07
1660 2 4.47544540825668606e-07
1661 2 4.48556717407064808e-07
1662 2 4.49136420025017483e-07
1663 2 4.50464935735647565e-07
1664 2 4.49345912463980486e-07
1665 2 4.49340056803090589e-07
1666 2 4.48005272247959950e-07
1667 2 4.50609097485924157e-07
1668 2 4.50418298054240654e-07
1669 2 4.49207513813192990e-07
1670 2 4.48914124239877499e-07
1671 2 4.52204851502210447e-07
1672 2 4.52090847449463709e-07
1673 2 4.52280723993657473e-07
1674 2 4.51712641993707830e-07
1675 2 4.50313818646295661e-07
1676 2 4.49997189337427115e-07
1677 2 4.48500128659286891e-07
1678 2 4.51175527963325774e-07
1679 2 4.51964886836533359e-07
1680 2 4.52474441074709038e-07
1681 2 4.50613278544488305e-07
1682 2 4.49111317687448700e-07
1683 2 4.49316516140891719e-07
1684 2 4.53745326595152436e-07
1685 2 4.53187369745805187e-07
1686 2 4.52153736974889376e-07
1687 2 4.54908138297707474e-07
1688 2 4.55061474257502780e-07
1689 2 4.47952319591083446e-07
1690 2 4.46674813710519457e-07
1691 2 4.45629927249856932e-07
1692 2 4.45460685488246218e-07
1693 2 4.44795654321944647e-07
1694 2 4.46753382204315874e-07
1695 2 4.45958868319420175e-07
1696 2 4.44442950564365382e-07
1697 2 4.44862883020302060e-07
1698 2 4.46185172714879459e-07
1699 2 4.46396791061546664e-07
1700 2 4.47091786642892536e-07
1701 2 4.46183142751380062e-07
1702 2 4.47377929735702780e-07
1703 2 4.43588852844352917e-07
1704 2 4.47090954826066375e-07
1705 2 4.46093825522366911e-07
1706 2 4.47387681567901382e-07
1707 2 4.49623393421490634e-07
1708 2 4.48288324208459210e-07
1709 2 4.50562702285461472e-07
1710 2 4.53763260213757210e-07
1711 2 4.53283803614270065e-07
1712 2 4.54041966740825014e-07
1713 2 4.61091481363151063e-07
1714 2 4.62514364193631604e-07
1715 2 4.63717087984114265e-07
1716 2 4.62560910118952913e-07
1717 2 4.63657674786906569e-07
1718 2 4.59502151292536936e-07
1719 2 4.64577746208003999e-07
1720 2 4.60330717722068589e-07
1721 2 4.60497740785210588e-07
1722 2 4.59334615930394631e-07
1723 2 4.61280768678226737e-07
1724 2 4.60411662180310152e-07
1725 2 4.55392284414370454e-07
1726 2 4.57677770625891878e-07
1727 2 4.60973543842494934e-07
1728 2 4.59899504531958114e-07
1729 2 4.61127164008734905e-07
1730 2 4.59695933433517429e-07
1731 2 4.61220009746572328e-07
1732 2 4.59790441394667459e-07
1733 2 4.62286012871901601e-07
1734 2 4.61563885863806128e-07
1735 2 4.54754159437928334e-07
1736 2 4.53523639189182922e-07
1737 2 4.54738360290313913e-07
1738 2 4.51646668960583677e-07
1739 2 4.50366279704504914e-07
1740 2 4.51954216554995218e-07
1741 2 4.50846777152900669e-07
1742 2 4.51893405984466077e-07
1743 2 4.52668842206680775e-07
1744 2 4.52748092761632639e-07
1745 2 4.51165773046203637e-07
1746 2 4.53823746948804968e-07
1747 2 4.53991693160476590e-07
1748 2 4.54741049595555325e-07
1749 2 4.52786157596460487e-07
1750 2 4.51377649072477172e-07
1751 2 4.49489592564155957e-07
1752 2 4.47642303343130817e-07
1753 2 4.48265688014412059e-07
1754 2 4.48425540329942858e-07
1755 2 4.48516535256387158e-07
1756 2 4.48613121816002726e-07
1757 2 4.47675456699180941e-07
1758 2 4.44921747985689674e-07
1759 2 4.46212918631732333e-07
1760 2 4.44918295246143856e-07
1761 2 4.46432657745642373e-07
1762 2 4.43509316072251420e-07
1763 2 4.42465059122163526e-07
1764 2 4.43599779435414819e-07
1765 2 4.43807716560012526e-07
1766 2 4.42581587272696139e-07
1767 2 4.43727495715593798e-07
1768 2 4.45494127484141735e-07
1769 2 4.45023313842879043e-07
1770 2 4.46649413650498520e-07
1771 2 4.45660116149614267e-07
1772 2 4.46949805420104886e-07
1773 2 4.45738208319418908e-07
1774 2 4.55312001476176272e-07
1775 2 4.57231980001017983e-07
1776 2 4.57931691002695224e-07
1777 2 4.56533127010370211e-07
1778 2 4.58031419803789789e-07
1779 2 4.58433115419656260e-07
1780 2 4.59784334714450642e-07
1781 2 4.59836725987500284e-07
1782 2 4.60937900402448384e-07
1783 2 4.58932196107395168e-07
1784 2 4.55066286960388123e-07
1785 2 4.53850150904332310e-07
1786 2 4.53664095195135671e-07
1787 2 4.54151527878780173e-07
1788 2 4.51651527445347297e-07
1789 2 4.52638675161542491e-07
1790 2 4.52912155444469083e-07
1791 2 4.51702090088904908e-07
1792 2 4.55199966638265407e-07
1793 2 4.55928775397021902e-07
1794 2 4.56958055935139219e-07
1795 2 4.54831367253390792e-07
1796 2 4.55904983440002246e-07
1797 2 4.56093330987985807e-07
1798 2 4.57124730209181045e-07
1799 2 4.57299175216618059e-07
1800 2 4.50893545363344449e-07
1801 2 4.52879021804382203e-07
1802 2 4.53770740340005593e-07
1803 2 4.50418782511540940e-07
1804 2 4.52843442418019193e-07
1805 2 4.52371278906224666e-07
1806 2 4.51065768045977878e-07
1807 2 4.53468717136671520e-07
1808 2 4.52385466807918773e-07
1809 2 4.54543265035585050e-07
1810 2 4.55002776314404015e-07
1811 2 4.55864693200065514e-07
1812 2 4.58656640957803251e-07
1813 2 4.48842651520581548e-07
1814 2 4.46546078105911781e-07
1815 2 4.50272045472463518e-07
1816 2 4.44193120052553151e-07
1817 2 4.44900233241376244e-07
1818 2 4.41111241010906091e-07
1819 2 4.35585896253045151e-07
1820 2 4.34954551429164230e-07
1821 2 4.37164702250839214e-07
1822 2 4.38188205726600938e-07
1823 2 4.36430881894752048e-07
1824 2 4.35863150778348347e-07
1825 2 4.37120712447104728e-07
1826 2 4.26499013477366256e-07
1827 2 4.35204976957476598e-07
1828 2 4.34271728163336598e-07
1829 2 4.34723023636143897e-07
1830 2 4.35914437115572767e-07
1831 2 4.35160311384441153e-07
1832 2 4.35867539472427403e-07
1833 2 4.34264717163531553e-07
1834 2 4.34590744237703943e-07
1835 2 4.37366141038738770e-07
1836 2 4.37931410720205259e-07
1837 2 4.36792390338590856e-07
1838 2 4.37811024811957720e-07
1839 2 4.36711432111224377e-07
1840 2 4.35620650596614176e-07
1841 2 4.26456775453879028e-07
1842 2 4.25136907650882150e-07
1843 2 4.22998971996894505e-07
1844 2 4.23839903630867050e-07
1845 2 4.21962877671569445e-07
1846 2 4.22691056115907989e-07
1847 2 4.20787637280050800e-07
1848 2 4.25380749602332678e-07
1849 2 4.24900812959108886e-07
1850 2 4.26240760255421238e-07
1851 2 4.20728712166558199e-07
1852 2 4.22069568311643685e-07
1853 2 4.23749946816683845e-07
1854 2 4.23618329141733551e-07
1855 2 4.22562709633633875e-07
1856 2 4.22366703396911957e-07
1857 2 4.21338685896082383e-07
1858 2 4.22783229964646799e-07
1859 2 4.24269135982937014e-07
1860 2 4.26541323245522917e-07
1861 2 4.25620349441482272e-07
1862 2 4.26517400089667413e-07
1863 2 4.27716887049992630e-07
1864 2 4.28153004051901120e-07
1865 2 4.25156948600656021e-07
1866 2 4.26066188624607381e-07
1867 2 4.26756874094896258e-07
1868 2 4.24765431806650341e-07
1869 2 4.28638336431346451e-07
1870 2 4.28970730411799636e-07
1871 2 4.23453875154922774e-07
1872 2 4.24049957099718639e-07
1873 2 4.22764525631623269e-07
1874 2 4.63464336511750838e-07
1875 2 4.62481045886490946e-07
1876 2 4.63595803644148457e-07
1877 2 4.61060755897431526e-07
1878 2 4.65079933669832385e-07
1879 2 4.58215331346039098e-07
1880 2 4.57416107612461085e-07
1881 2 4.56589874738902793e-07
1882 2 4.57805789098193743e-07
1883 2 4.59191718073538722e-07
1884 2 4.59803443471351624e-07
1885 2 4.59335700938138701e-07
1886 2 3.94468395163780080e-07
1887 2 3.95446519290814822e-07
1888 2 3.96638468431279568e-07
1889 2 3.86274939990839713e-07
1890 2 4.37151146669061685e-07
1891 2 4.34533985306848555e-07
1892 2 4.41924422112430471e-07
1893 2 4.41201044423004583e-07
1894 2 4.42059249952637473e-07
1895 2 4.50956713720106646e-07
1896 2 4.11053408374405549e-07
1897 2 4.11588109463622760e-07
1898 2 4.12095258987003231e-07
1899 2 4.10112683852033938e-07
1900 2 4.10028216514776770e-07
1901 2 4.09307431804890996e-07
1902 2 4.10530438504157780e-07
1903 2 4.44186825281096545e-07
1904 2 4.32059088700510746e-07
1905 2 4.31807358364239677e-07
1906 2 4.31831053684117943e-07
1907 2 4.30121949859795582e-07
1908 2 4.29837122401676290e-07
1909 2 4.29575404991260122e-07
1910 2 4.44921817084283606e-07
1911 2 4.44095139640958733e-07
1912 2 4.45821751452587230e-07
1913 2 4.47973532298614062e-07
1914 2 4.46649758895963991e-07
1915 2 4.48151824382994469e-07
1916 2 4.46990535569750137e-07
1917 2 4.46513433328121828e-07
1918 2 4.45934494482422182e-07
1919 2 4.44920475722654966e-07
1920 2 4.22913895000000014e-07
1921 2 4.06675166298423551e-07
1922 2 4.06161631974792481e-07
1923 2 4.07137896620010405e-07
1924 2 4.07955884839468420e-07
1925 2 4.07543294292124345e-07
1926 2 4.06327265305726475e-07
1927 2 4.04955845785747847e-07
1928 2 4.04126263354231564e-07
1929 2 4.04913227936593602e-07
1930 2 4.03745967383463284e-07
1931 2 4.02927302497895471e-07
1932 2 4.08760969741506602e-07
1933 2 4.08441228484866677e-07
1934 2 4.10151223554971586e-07
1935 2 4.10614332841822146e-07
1936 2 4.09451497814460859e-07
1937 2 4.08692353444116210e-07
1938 2 4.08250001021506984e-07
1939 2 4.07160786666207977e-07
1940 2 4.10203276303459485e-07
1941 2 4.11103457499999964e-07
1942 2 4.57092450161788659e-07
1943 2 4.56819034807415178e-07
1944 2 4.55824829321017661e-07
1945 2 4.07209174659625928e-07
1946 2 4.06219338135911546e-07
1947 2 4.05226375318387948e-07
1948 2 4.07188552725678984e-07
1949 2 4.05959309694035343e-07
1950 2 4.05428474584216803e-07
1951 2 4.04565289183003254e-07
1952 2 4.05402598367092451e-07
1953 2 4.07419517478972753e-07
1954 2 4.06182238464600503e-07
1955 2 4.07523548889455578e-07
1956 2 4.05386663676813442e-07
1957 2 4.05387274706563985e-07
1958 2 4.06687236095314741e-07
1959 2 4.06694691101659168e-07
1960 2 4.05197488752368117e-07
1961 2 4.05064838418550031e-07
1962 2 4.03581402269503088e-07
1963 2 4.04209393561243514e-07
1964 2 4.04243001928613872e-07
1965 2 4.03999903254164237e-07
1966 2 4.04081499197256650e-07
1967 2 4.09566343365744065e-07
1968 2 4.08366141114883847e-07
1969 2 4.09068386426877836e-07
1970 2 4.08866907835569664e-07
1971 2 4.07878399650573276e-07
1972 2 4.10817742293427973e-07
1973 2 4.12330305252520462e-07
1974 2 4.11144227807029270e-07
1975 2 4.11945959419043648e-07
1976 2 4.12392199754813808e-07
1977 2 4.10387005170070609e-07
1978 2 4.10133588289493335e-07
1979 2 4.08914090300377405e-07
1980 2 4.09993206055984077e-07
1981 2 4.03615665253927463e-07
1982 2 4.07322065903742224e-07
1983 2 4.13419006621046356e-07
1984 2 4.14592848427596542e-07
1985 2 4.12287662716998604e-07
1986 2 4.13654444853690972e-07
1987 2 4.14124432298681646e-07
1988 2 4.06136690396754752e-07
1989 2 4.11340388961658323e-07
1990 2 4.65774305999999971e-07
1991 2 4.66464721374929746e-07
1992 2 3.94641992007501713e-07
1993 2 4.57740435062476314e-07
1994 2 4.17311186391997250e-07
1995 2 4.22512649950196971e-07
1996 2 4.26869017848973491e-07
1997 2 4.27963634727538915e-07
1998 2 4.26849674704025644e-07
1999 2 4.27100961074673946e-07
2000 2 4.24975877483596637e-07
2001 2 4.25731785536462181e-07
2002 2 4.24333384255655913e-07
2003 2 4.23416970435087668e-07
2004 2 4.22353525032289897e-07
2005 2 4.20945517790129232e-07
2006 2 4.20354179440106667e-07
2007 2 4.21016291474905790e-07
2008 2 4.22276761893300636e-07
2009 2 4.19548852577882550e-07
2010 2 4.18983798237602135e-07
2011 2 4.17898875429525748e-07
2012 2 4.19686827997476321e-07
2013 2 4.21365515044966389e-07
2014 2 4.22215981290986321e-07
2015 2 4.21119768912000223e-07
2016 2 4.28564370340987980e-07
2017 2 4.29489327697568224e-07
2018 2 4.27348582420080818e-07
2019 2 4.27571760905750901e-07
2020 2 4.26251261290435015e-07
2021 2 4.28641383344422065e-07
2022 2 4.25952979157700044e-07
2023 2 4.25403437446876754e-07
2024 2 4.24564987342729353e-07
2025 2 4.24576686457533214e-07
2026 2 4.27196551228489569e-07
2027 2 4.15786844013979358e-07
2028 2 4.17729773402377277e-07
2029 2 4.16438066756765984e-07
2030 2 4.17688897769449334e-07
2031 2 4.15789896373608802e-07
2032 2 4.15394181071976137e-07
2033 2 4.15134424916955987e-07
2034 2 4.19470076269303056e-07
2035 2 4.20642795465137357e-07
2036 2 4.19371473339716459e-07
2037 2 4.16189990386850680e-07
2038 2 4.56974659620435336e-07
2039 2 4.61511893580856277e-07
2040 2 4.60036597243400237e-07
2041 2 4.59258038736997889e-07
2042 2 4.61507940376062141e-07
2043 2 4.61620527279667389e-07
2044 2 4.53525245404068301e-07
2045 2 4.50870558991262620e-07
2046 2 4.51877223822037407e-07
2047 2 4.52424549760532733e-07
2048 2 4.51348847918503551e-07
2049 2 4.51506165763736372e-07
2050 2 4.53745583376256073e-07
2051 2 4.53422297820079155e-07
2052 2 4.55162125272180366e-07
2053 2 4.55597090494357924e-07
2054 2 4.54809062010881058e-07
2055 2 4.56108293759043933e-07
2056 2 4.54960276340637517e-07
2057 2 4.54936874491550384e-07
2058 2 4.52937027115139088e-07
2059 2 4.55738225939690407e-07
2060 2 4.56587325280818234e-07
2061 2 4.58450053202692562e-07
2062 2 4.58700592918514615e-07
2063 2 4.57487304391066287e-07
2064 2 4.59492446945735658e-07
2065 2 4.55904617996831590e-07
2066 2 4.55309402846270426e-07
2067 2 4.53116268962802008e-07
2068 2 4.54911747941320393e-07
2069 2 4.56321489981921727e-07
2070 2 4.54187348453740390e-07
2071 2 4.52757232503941673e-07
2072 2 4.56744549100544806e-07
2073 2 4.56298397290172456e-07
2074 2 4.57708493309646367e-07
2075 2 4.54242646060519537e-07
2076 2 4.55270852967885060e-07
2077 2 4.49227039122457948e-07
2078 2 4.50132570522823807e-07
2079 2 4.48872156909867712e-07
2080 2 4.49247855852573791e-07
2081 2 4.47625926401635161e-07
2082 2 4.48312255803716526e-07
2083 2 4.49792473588491258e-07
2084 2 4.51111400222030593e-07
2085 2 4.49367397255707481e-07
2086 2 4.50250463137532406e-07
2087 2 4.50200113305206598e-07
2088 2 4.48984208129412346e-07
2089 2 4.50300595033484261e-07
2090 2 4.51797642565031041e-07
2091 2 4.51582827625031550e-07
2092 2 4.52383320281224684e-07
2093 2 4.53611593477802132e-07
2094 2 4.48688839752573845e-07
2095 2 4.47163519517015777e-07
2096 2 4.47636462157940285e-07
2097 2 4.46790614639471914e-07
2098 2 4.50135702057027558e-07
2099 2 4.49074881616999612e-07
2100 2 4.49188757534977968e-07
2101 2 4.50838716410079970e-07
2102 2 4.47816720844997642e-07
2103 2 4.49046438040402105e-07
2104 2 4.48749383189222690e-07
2105 2 4.50110700283713418e-07
2106 2 4.47429767825132995e-07
2107 2 4.50427055519917824e-07
2108 2 4.50095635722195467e-07
2109 2 4.51364456101480057e-07
2110 2 4.50099763872098321e-07
2111 2 4.49151646777899346e-07
2112 2 4.51324135577920216e-07
2113 2 4.50307331677743056e-07
2114 2 4.49205987651268266e-07
2115 2 4.47946300035309584e-07
2116 2 4.46207107400716581e-07
2117 2 4.50971098075097392e-07
2118 2 4.51988002303853923e-07
2119 2 4.51172384564251794e-07
2120 2 4.47909531241737788e-07
2121 2 4.50505653897912505e-07
2122 2 4.51630222661984822e-07
2123 2 4.50347340678787155e-07
2124 2 4.53972118167762010e-07
2125 2 4.65281027681855978e-07
2126 2 4.44663632330370119e-07
2127 2 4.46144619511823652e-07
2128 2 4.47114478981531115e-07
2129 2 4.44836830273513126e-07
2130 2 4.45824178220159341e-07
2131 2 4.43339692305573799e-07
2132 2 4.43696853824986217e-07
2133 2 4.42312357799110015e-07
2134 2 4.02350785248487691e-07
2135 2 3.89556269486118952e-07
2136 2 4.13923556561415104e-07
2137 2 3.96184711499999983e-07
2138 2 4.27805353133250613e-07
2139 2 4.27850977833730990e-07
2140 2 4.29732716617774086e-07
2141 2 4.28922706329940166e-07
2142 2 4.26436881521179863e-07
2143 2 4.27314365384667504e-07
2144 2 4.28859811580521594e-07
2145 2 4.29899727487434394e-07
2146 2 4.29303526022938332e-07
2147 2 4.28699567933755977e-07
2148 2 4.19834728500000021e-07
2149 2 4.45481658990472863e-07
2150 2 3.88484725999999986e-07
2151 2 3.89098984501811994e-07
2152 2 4.24890106815802315e-07
2153 2 4.61185377708726524e-07
2154 2 4.63085652948469752e-07
2155 2 4.65310657276900182e-07
2156 2 4.55594431587552555e-07
2157 2 4.54877949829995388e-07
2158 2 4.18978713435973735e-07
2159 2 4.19764710051443574e-07
2160 2 4.18402001168747644e-07
2161 2 4.17418423387694324e-07
2162 2 4.20916932121410819e-07
2163 2 4.20573538275636574e-07
2164 2 4.19513072539970007e-07
2165 2 4.02019005827233750e-07
2166 2 4.64462920731988796e-07
2167 2 4.63997247632242589e-07
2168 2 4.62774650072250045e-07
2169 2 4.61397923088304110e-07
2170 2 4.62549458227338417e-07
2171 2 4.61986502966190670e-07
2172 2 4.63992422645322280e-07
2173 2 4.63808746072653642e-07
2174 2 4.65044901929372680e-07
2175 2 4.67129907058914220e-07
2176 2 4.66328421406864346e-07
2177 2 4.43131943000000085e-07
2178 2 4.50798809534151690e-07
2179 2 3.83295964006095694e-07
2180 2 3.82126034600138733e-07
2181 2 3.82747315611051220e-07
2182 2 3.82106952499999982e-07
2183 2 4.15733131842263152e-07
2184 2 4.16722755774673229e-07
2185 2 4.16761371920753379e-07
2186 2 4.15735577425907263e-07
2187 2 4.13737588102847730e-07
2188 2 4.12955545503420320e-07
2189 2 4.14298440093764327e-07
2190 2 4.12511680472834423e-07
2191 2 4.14236156611597401e-07
2192 2 4.16411515456237725e-07
2193 2 4.14829886684209842e-07
2194 2 4.15711329244519683e-07
2195 2 4.14071157668539246e-07
2196 2 4.62545870477900194e-07
2197 2 4.11570320500000023e-07
2198 2 3.84509725204935547e-07
2199 2 4.18050399908636363e-07
2200 2 4.16545831499999974e-07
2201 2 4.59097992440510228e-07
2202 2 4.19220829000000007e-07
2203 2 4.59696235499999970e-07
2204 2 4.40770128814539688e-07
2205 2 3.97792681218911008e-07
2206 2 3.99399128002474451e-07
2207 2 3.99737485657415186e-07
2208 2 3.98644554203834221e-07
2209 2 4.34879852138019922e-07
2210 2 3.79230556499999995e-07
2211 2 4.00640651294344424e-07
2212 2 4.01361883986394474e-07
2213 2 4.00533474319059791e-07
2214 2 4.02724671821429893e-07
2215 2 4.13769847695564351e-07
2216 2 4.14854269924041543e-07
2217 2 4.15385741139697833e-07
2218 2 4.13077001078713995e-07
2219 2 4.14289588209567572e-07
2220 2 4.62751576829024217e-07
2221 2 4.61617138703877571e-07
2222 2 4.62643047591654850e-07
2223 2 4.61677079715180391e-07
2224 2 4.62331012070706343e-07
2225 2 4.63053608551609791e-07
2226 2 4.64045295443525465e-07
2227 2 4.64793418705120921e-07
2228 2 4.64347116684740024e-07
2229 2 4.63767191884673084e-07
2230 2 4.65186325863449883e-07
2231 2 4.66471011478852483e-07
2232 2 4.28099964666483537e-07
2233 2 4.30361963797619875e-07
2234 2 4.31820492326954555e-07
2235 2 4.32870275654304393e-07
2236 2 4.30811351854971136e-07
2237 2 4.53484560368458200e-07
2238 2 4.54548827373509115e-07
2239 2 4.53537778321568868e-07
2240 2 4.52422284484014952e-07
2241 2 4.53624280217203728e-07
2242 2 4.53910858772224011e-07
2243 2 4.53757313062398060e-07
2244 2 4.52475666779273740e-07
2245 2 4.51863964417980376e-07
2246 2 4.47031009955427708e-07
2247 2 4.47323536508974925e-07
2248 2 4.57537344008310670e-07
2249 2 4.24112425732034897e-07
2250 2 4.23546735801638459e-07
2251 2 4.24452371481959726e-07
2252 2 4.18439090094542391e-07
2253 2 4.19920085565942213e-07
2254 2 4.14516619145143489e-07
2255 2 4.03340961959010070e-07
2256 2 4.02995533699008425e-07
2257 2 4.09385430881515216e-07
2258 2 4.10244444999999977e-07
2259 2 4.47647394607718490e-07
2260 2 4.49198337294848756e-07
2261 2 4.49594744089053968e-07
2262 2 4.48518998555898737e-07
2263 2 4.49264802999107009e-07
2264 2 4.50389200784377505e-07
2265 2 4.50473526099654077e-07
2266 2 4.43203384860754079e-07
2267 2 4.27217037707429882e-07
2268 2 4.28454626266981768e-07
2269 2 4.45650762837810011e-07
2270 2 4.49836598025823127e-07
2271 2 4.47454351780152186e-07
2272 2 4.61501813844572325e-07
2273 2 4.62930919634057394e-07
2274 2 4.45151805931767392e-07
2275 2 4.54533773074647435e-07
2276 2 4.55333488012282125e-07
2277 2 4.54483597996014981e-07
2278 2 4.58566086907538522e-07
2279 2 4.44086667692796382e-07
2280 2 4.43523923271063547e-07
2281 2 4.42382272205445569e-07
2282 2 4.40143483361729448e-07
2283 2 4.31663300609518869e-07
2284 2 4.26382080810744162e-07
2285 2 4.30912209759111197e-07
2286 2 4.28851233848196722e-07
2287 2 4.38175551829414111e-07
2288 2 4.42431023158263636e-07
2289 2 4.15990032457508400e-07
2290 2 4.66124442037022342e-07
2291 2 4.51526157400221059e-07
2292 2 4.23684413480054189e-07
2293 2 4.08204250888628221e-07
2294 2 4.68540279792270724e-07
2295 2 4.17121835306374204e-07
2296 2 4.62447375999999973e-07
2297 2 4.61617651387509820e-07
2298 2 4.65441378392711778e-07
2299 2 4.23175565233313280e-07
2300 2 4.20693299508799185e-07
2301 2 4.55826051162746682e-07
