%%MatrixMarket matrix coordinate  real general
1044 1 1044
1 1 2.51323753582147802e+01
2 1 2.47854130107835182e+01
3 1 2.53459421729021379e+01
4 1 2.61219606380823279e+01
5 1 2.79077433980790595e+01
6 1 3.00876260073130730e+01
7 1 3.25793229175715808e+01
8 1 3.09013025364494816e+01
9 1 2.41144713310607273e+01
10 1 2.69989954268223364e+01
11 1 3.72380561092121809e+01
12 1 4.80419924540402192e+01
13 1 4.66966352715633093e+01
14 1 4.10173956385141949e+01
15 1 2.88925968258552146e+01
16 1 2.11913418699342060e+01
17 1 1.94567367732988039e+01
18 1 1.94717078958844141e+01
19 1 1.69125779851388742e+01
20 1 1.65264881369768162e+01
21 1 1.64766241993818667e+01
22 1 1.79365831238548665e+01
23 1 1.98278630034407719e+01
24 1 2.02351775873068362e+01
25 1 1.87347413163748371e+01
26 1 1.74784772654984266e+01
27 1 1.54695889182908655e+01
28 1 1.45042321006028576e+01
29 1 1.35487652627361488e+01
30 1 8.20523642068367387e+00
31 1 2.58638826347216488e+00
32 1 -6.13392938404272225e+00
33 1 -6.39858383115631568e+00
34 1 -3.50214007466995625e+00
35 1 -1.89066225226485662e+00
36 1 4.19736808659034732e+00
37 1 9.87827437196003721e+00
38 1 1.25760610026006230e+01
39 1 1.24810267830509609e+01
40 1 1.22948502474421186e+01
41 1 1.19145065749563948e+01
42 1 1.17397659129184166e+01
43 1 1.25494068167546242e+01
44 1 1.53834521423547343e+01
45 1 1.70579185078065976e+01
46 1 1.87044304887677875e+01
47 1 2.54457628041388517e+01
48 1 2.89282842244626650e+01
49 1 2.30489477208489433e+01
50 1 1.92718861346629353e+01
51 1 1.62644972573476068e+01
52 1 1.48518956292461972e+01
53 1 1.46291259255034127e+01
54 1 1.37791145846898324e+01
55 1 1.35259349156964213e+01
56 1 1.35098693716312575e+01
57 1 1.34967159210588541e+01
58 1 1.31886830007882079e+01
59 1 1.25103244584620494e+01
60 1 1.17496609716994929e+01
61 1 1.03049436879789056e+01
62 1 8.66776210788391488e+00
63 1 7.77473414740857116e+00
64 1 7.07257520216426716e+00
65 1 5.98171287092870596e+00
66 1 5.40084494555281758e+00
67 1 3.82042589299993107e+00
68 1 3.61354430442108487e+00
69 1 2.49101758233444359e+00
70 1 2.88604025316009993e+00
71 1 3.40832925370415385e+00
72 1 4.03388443662400853e+00
73 1 4.28388178002544784e+00
74 1 5.06217860404035047e+00
75 1 5.25390683476831022e+00
76 1 5.57259560639897611e+00
77 1 7.94534900262926680e+00
78 1 1.26800419424379314e+01
79 1 1.33591640456250040e+01
80 1 1.37974261526743955e+01
81 1 1.40757367862521807e+01
82 1 1.43185456244202669e+01
83 1 1.43474351499743644e+01
84 1 1.42848056961482630e+01
85 1 1.45305805524743512e+01
86 1 1.50327145210178355e+01
87 1 1.64386927335118962e+01
88 1 1.85095843415024639e+01
89 1 1.99918828851393542e+01
90 1 2.00560297900666029e+01
91 1 1.99608132989844620e+01
92 1 1.98129904948718689e+01
93 1 1.97046368608555440e+01
94 1 1.95000707209682567e+01
95 1 1.87807720413332397e+01
96 1 1.67693646409779795e+01
97 1 1.43101221990879566e+01
98 1 1.40616867848758300e+01
99 1 1.36491398610187673e+01
100 1 1.37643404260326179e+01
101 1 1.46530835941571045e+01
102 1 1.56244919860045162e+01
103 1 1.64884245060706611e+01
104 1 1.66059663619766802e+01
105 1 1.68542910954762775e+01
106 1 1.71154137367793560e+01
107 1 1.83808130451389715e+01
108 1 1.96762247879884988e+01
109 1 1.97309927403809944e+01
110 1 1.61942404829021669e+01
111 1 1.36780550410502464e+01
112 1 1.26337585383026578e+01
113 1 1.28170535435652351e+01
114 1 1.34419614554469966e+01
115 1 1.36432751258457063e+01
116 1 1.49838950139018756e+01
117 1 1.40644917068529658e+01
118 1 1.26807467690598656e+01
119 1 7.42725525877254711e+00
120 1 5.08725945144093572e+00
121 1 2.41107216857898043e+00
122 1 2.37294302924581357e+00
123 1 3.06052254349077213e+00
124 1 3.74984771822170826e+00
125 1 8.36760767198580169e+00
126 1 9.27937316532275247e+00
127 1 1.08715628280272494e+01
128 1 1.77706564696282925e+01
129 1 2.13418753946723001e+01
130 1 2.22007771652550012e+01
131 1 2.23991983956379848e+01
132 1 2.12132140513607013e+01
133 1 1.93901433243761829e+01
134 1 1.72134966335959660e+01
135 1 1.42978171649807386e+01
136 1 1.45326557547422652e+01
137 1 1.55573098334536866e+01
138 1 1.79287250057722325e+01
139 1 1.85787532007922493e+01
140 1 1.89100503136449767e+01
141 1 1.91187960660953600e+01
142 1 1.91376949223001134e+01
143 1 1.91003040350084241e+01
144 1 1.89828361315494796e+01
145 1 1.82932057154560077e+01
146 1 1.79596645972402271e+01
147 1 1.60735192393518354e+01
148 1 1.47980338696872771e+01
149 1 1.32248144996827488e+01
150 1 1.53046982216268059e+01
151 1 1.69426163646258523e+01
152 1 2.10760640241443333e+01
153 1 2.08490610689358746e+01
154 1 1.78821967339492289e+01
155 1 1.62461183832911082e+01
156 1 1.53249765348104638e+01
157 1 1.52279836508755047e+01
158 1 1.54935332971127924e+01
159 1 1.61121647919886719e+01
160 1 1.70746987364519818e+01
161 1 1.73573157170587891e+01
162 1 1.89117832848582381e+01
163 1 2.04798617642798781e+01
164 1 2.28732957938581158e+01
165 1 2.40947939739912300e+01
166 1 2.70974083029504769e+01
167 1 2.74176524548873282e+01
168 1 2.74864457738447996e+01
169 1 2.75826634153853227e+01
170 1 2.76211716003131791e+01
171 1 2.78348743592344334e+01
172 1 2.81182356231655604e+01
173 1 2.99071225069489905e+01
174 1 3.05952879436761656e+01
175 1 3.10349986725498610e+01
176 1 2.86930281061320578e+01
177 1 2.28953793917368742e+01
178 1 1.59712371052534561e+01
179 1 1.48398204334195043e+01
180 1 1.42603455401596282e+01
181 1 1.39573142930054708e+01
182 1 1.38206698709740436e+01
183 1 1.36502629327666458e+01
184 1 1.37301743906544989e+01
185 1 1.22527152189487314e+01
186 1 1.11603251086315378e+01
187 1 1.10829832329835174e+01
188 1 1.15672360011382622e+01
189 1 1.38059034922232815e+01
190 1 2.07871886564109900e+01
191 1 3.24348454086961482e+01
192 1 3.39368716805064992e+01
193 1 2.92721026041963128e+01
194 1 1.45060092321246366e+01
195 1 2.24716638558517658e+01
196 1 2.20782034913825385e+01
197 1 2.11507953756554770e+01
198 1 2.01035142964603963e+01
199 1 1.52787905704793712e+01
200 1 1.26063084851158749e+01
201 1 9.35812427805992897e+00
202 1 6.30081991722434065e+00
203 1 1.79618024881903460e+00
204 1 1.02965118389772492e+00
205 1 -7.94168707536239249e-01
206 1 -1.25952739998558405e+00
207 1 -1.43776539422083682e+00
208 1 -1.28526347199628654e+00
209 1 -8.47485722141525399e-01
210 1 7.44104248500119914e-01
211 1 1.25841608196317600e+00
212 1 4.66091911198298003e+00
213 1 6.56139343345117965e+00
214 1 7.72512816282346648e+00
215 1 7.77650214772561288e+00
216 1 7.27475705363860570e+00
217 1 7.64893482190246132e+00
218 1 8.18617099796452763e+00
219 1 8.75284593771571906e+00
220 1 1.12952313660277230e+01
221 1 1.17121262160924093e+01
222 1 1.21572145991149778e+01
223 1 1.21735454335457121e+01
224 1 1.25526339059176930e+01
225 1 1.31618763138493655e+01
226 1 1.49400222020349833e+01
227 1 1.59506965006543044e+01
228 1 1.78104699691925887e+01
229 1 1.93736278162000133e+01
230 1 2.06092467234811991e+01
231 1 2.01697979106511625e+01
232 1 1.97479590291856653e+01
233 1 2.01065394612787962e+01
234 1 2.05029050281236920e+01
235 1 1.99668551272995174e+01
236 1 1.86046391177545090e+01
237 1 1.74083970414878380e+01
238 1 1.70894734263073218e+01
239 1 1.70384823911056422e+01
240 1 1.70538591518144855e+01
241 1 1.72205017515590910e+01
242 1 1.74761764724045605e+01
243 1 1.75902494784527512e+01
244 1 1.76653935269763096e+01
245 1 1.75179843933303729e+01
246 1 1.77506793042603981e+01
247 1 1.80319797409160145e+01
248 1 1.96693499238729039e+01
249 1 2.25941197143687695e+01
250 1 3.13802893588903267e+01
251 1 3.38880077596324085e+01
252 1 3.52125930960685594e+01
253 1 3.67354957362895860e+01
254 1 3.82403304531982826e+01
255 1 3.78257382973530198e+01
256 1 3.71225425555700070e+01
257 1 3.18453425468698335e+01
258 1 3.10449907666762748e+01
259 1 3.11361124782023850e+01
260 1 2.90237476170829716e+01
261 1 3.01840409603459960e+01
262 1 3.27067314109247889e+01
263 1 3.12888971268232829e+01
264 1 2.90924503111848338e+01
265 1 2.65019621366611169e+01
266 1 2.53708013019886671e+01
267 1 -1.35205465880972242e+00
268 1 1.34609387016986748e+01
269 1 1.95468675375741832e+01
270 1 2.07266652942239027e+01
271 1 2.08019000376145229e+01
272 1 2.02229550408447452e+01
273 1 2.49039264964366325e+00
274 1 3.34170115833477466e+00
275 1 2.40860831732460667e+00
276 1 1.69928616991105699e+01
277 1 1.29951002656287073e+01
278 1 2.32509422529189749e+01
279 1 2.65750017296412331e+01
280 1 1.90017693472604137e+01
281 1 8.26547424578786227e+00
282 1 3.52540574169486192e+01
283 1 2.99423162609082176e+01
284 1 2.02077552854181945e+01
285 1 1.81869268063721847e+01
286 1 2.37713958034148263e+01
287 1 2.06816854614365653e+01
288 1 1.38822832412152497e+01
289 1 1.70023413475600371e+01
290 1 9.63801495482920956e+00
291 1 2.20972479870233833e+01
292 1 2.57299550528764271e+01
293 1 3.01520604871151221e+01
294 1 1.92383844552596379e+01
295 1 1.54499310842611060e+01
296 1 2.26358638441408395e+01
297 1 2.80831553696456950e+01
298 1 2.89603199163779408e+01
299 1 2.97897476413513687e+01
300 1 3.25918432328153784e+01
301 1 1.47632350095110354e+01
302 1 3.31067988130478099e+01
303 1 2.11572641027546240e+01
304 1 2.78332852225944265e+01
305 1 1.06451834087347663e+01
306 1 2.98314994403928360e+01
307 1 1.38420898288127798e+01
308 1 4.68248340522734185e+00
309 1 1.88559102447060702e+01
310 1 2.81728674153180521e+01
311 1 2.88737043233338184e+01
312 1 5.47917943025038312e+00
313 1 2.54386330332397428e+01
314 1 2.67693916055198748e+01
315 1 3.70214333823386141e+01
316 1 1.65885466848088150e+01
317 1 3.27602988875913894e+01
318 1 2.80027744834493184e+01
319 1 4.81278655580461674e+01
320 1 2.96077628929261962e+01
321 1 1.80805088936654705e+01
322 1 1.79146021651082918e+01
323 1 1.47117390443529441e+01
324 1 1.55755907808869392e+01
325 1 1.31120302228215024e+01
326 1 2.85349799274659759e+01
327 1 3.00360799354525945e+01
328 1 2.95994097352433450e+01
329 1 2.29648265067325674e+01
330 1 1.75966240034400307e+01
331 1 2.04603771732278830e+01
332 1 2.03914739533884664e+01
333 1 4.57357718405665281e+01
334 1 1.27179493422430330e+01
335 1 2.15233911912714255e+01
336 1 2.68736435568308636e+01
337 1 1.72694266296709955e+01
338 1 1.69642339437523368e+01
339 1 2.08100144365464317e+01
340 1 2.41867559087188120e+01
341 1 2.21718956490902706e+01
342 1 2.75217784558197387e+01
343 1 3.04761154246609500e+01
344 1 2.75552964644116791e+01
345 1 2.60638594812082474e+01
346 1 1.97662231580479499e+01
347 1 2.16716025398436791e+01
348 1 1.76175611352778567e+01
349 1 1.69351754034699553e+01
350 1 1.82337164629930228e+01
351 1 1.79489400447695004e+01
352 1 1.98708445031271097e+01
353 1 1.56832014640133277e+01
354 1 1.50714981339796985e+01
355 1 2.05845663963459913e+01
356 1 2.36788888364716961e+01
357 1 2.57145647135154860e+01
358 1 1.87450595588912243e+01
359 1 1.98289424817852229e+01
360 1 3.97582951333191019e+01
361 1 2.38684838746173149e+01
362 1 1.90075644788967359e+01
363 1 3.67609164943781366e+01
364 1 2.08163848366706077e+01
365 1 9.89253496731557824e+00
366 1 1.65886681625503094e+01
367 1 3.32043020865504985e+01
368 1 3.24464599135181047e+01
369 1 3.74642566224528366e+01
370 1 1.20818847723420895e+01
371 1 1.14207028607542096e+01
372 1 1.44248785089760485e+01
373 1 1.26246443944258644e+01
374 1 1.33478928713416511e+01
375 1 1.58439410079068228e+01
376 1 1.74240587164558463e+01
377 1 1.27270116708975021e+01
378 1 2.09855947153604987e+01
379 1 1.35106861194108507e+01
380 1 1.25571498556071734e+01
381 1 1.42881867986253965e+01
382 1 1.97564225280886774e+01
383 1 1.23381167285653177e+01
384 1 2.59541988890273174e+01
385 1 2.25521745794852926e+01
386 1 3.07307230797472499e+01
387 1 2.85389152793935708e+01
388 1 3.12651311407897410e+01
389 1 3.24123622017947355e+01
390 1 2.67702284300097801e+01
391 1 2.89384592412555008e+01
392 1 2.81976131153800260e+01
393 1 2.42839211381526923e+01
394 1 3.01338968344686791e+01
395 1 3.03656498163793174e+01
396 1 3.40571178504935475e+01
397 1 3.39982259922503047e+01
398 1 2.82927049861367159e+01
399 1 2.66190144500560422e+01
400 1 2.87456799365026576e+01
401 1 2.57415926171070879e+01
402 1 2.11085432965046884e+01
403 1 2.10540403164383747e+01
404 1 2.45422938269762305e+01
405 1 1.60827690091188877e+01
406 1 1.48868208039750574e+01
407 1 1.43508968263314340e+01
408 1 1.46527710628806194e+01
409 1 2.42353392319839998e+01
410 1 1.87132669208218267e+01
411 1 1.89896617321097310e+01
412 1 1.65013175783185098e+01
413 1 1.71538868573447090e+01
414 1 2.09841624104775875e+01
415 1 2.08350623864074613e+01
416 1 2.17704116542243220e+01
417 1 2.98130889367163512e+01
418 1 2.04625183968655264e+01
419 1 3.83985441139703383e+01
420 1 2.98921051122800279e+01
421 1 2.20712437012615474e+01
422 1 4.00711269790586115e+01
423 1 3.50973094455841164e+01
424 1 1.94339175899307151e+01
425 1 1.94142780399905632e+01
426 1 3.48016648060907130e+01
427 1 3.03515220381108328e+01
428 1 3.04226112679106819e+01
429 1 3.96441624353141719e+01
430 1 3.55844703617353133e+01
431 1 2.89993666708578814e+01
432 1 3.18931826445855648e+01
433 1 3.08712850953444828e+01
434 1 2.91849695046986426e+01
435 1 3.45371406330364010e+01
436 1 3.73552254322381785e+01
437 1 3.84492076687902014e+01
438 1 3.23893773247522745e+01
439 1 3.18244839728313771e+01
440 1 2.87331782442186245e+01
441 1 3.87323998434465651e+01
442 1 3.76544273198362944e+01
443 1 2.87832233539735540e+01
444 1 2.35938339727843527e+01
445 1 2.40468393718940199e+01
446 1 3.63023686088012241e+01
447 1 1.82724864208984847e+01
448 1 2.17892150718248949e+01
449 1 3.74567524408076622e+01
450 1 4.17706536774996238e+01
451 1 2.28943184565776505e+01
452 1 1.90568679828008740e+01
453 1 3.07174657798231721e+01
454 1 2.23571427524428792e+01
455 1 2.82239798745254333e+01
456 1 3.90366464618388775e+01
457 1 3.47627290732688792e+01
458 1 3.00127458821102131e+01
459 1 3.68682549068571817e+01
460 1 1.65043991658634681e+01
461 1 1.55808394611609522e+01
462 1 1.77294059001990227e+01
463 1 1.45362565707969029e+01
464 1 1.87953695589533396e+01
465 1 1.53794939255835050e+01
466 1 1.53459044731471863e+01
467 1 1.23242604336226567e+01
468 1 2.35545474211632140e+01
469 1 2.38525278230571729e+01
470 1 2.36837525488768819e+01
471 1 2.50942154077435653e+01
472 1 2.73976244660446753e+01
473 1 2.71048524763805148e+01
474 1 2.88688120880711487e+01
475 1 3.00337660854595612e+01
476 1 2.34454189628140988e+01
477 1 2.20147789781083212e+01
478 1 2.79767533890293940e+01
479 1 2.37551219092171877e+01
480 1 2.80450882486638839e+01
481 1 2.89845015726503732e+01
482 1 2.63382868085810458e+01
483 1 2.78179934677064153e+01
484 1 2.35281675939096075e+01
485 1 2.15440711953475308e+01
486 1 2.49199634509523662e+01
487 1 2.96261247769380809e+01
488 1 3.46410985691766484e+01
489 1 2.99080385257021319e+01
490 1 2.97405698484792360e+01
491 1 3.52732020596958264e+01
492 1 2.27158857307414728e+01
493 1 2.45166503672050595e+01
494 1 2.96691568197780313e+01
495 1 1.64902938284325380e+01
496 1 2.63573113261316294e+01
497 1 2.09569104621719511e+01
498 1 2.49634156560787801e+01
499 1 2.46201661991301783e+01
500 1 2.96846731084068018e+01
501 1 2.85119551563181126e+01
502 1 3.30724002565558663e+01
503 1 3.79404512897861181e+01
504 1 3.32828394497911049e+01
505 1 2.92725138263028484e+01
506 1 3.89767634177003828e+01
507 1 4.10777023362768929e+01
508 1 3.90019853708484376e+01
509 1 3.43212477771917008e+01
510 1 3.46903870190028343e+01
511 1 2.40254739081961510e+01
512 1 3.13626373664822822e+01
513 1 2.65790397929354398e+01
514 1 3.14552903189653392e+01
515 1 2.21002288193979126e+01
516 1 2.35790812539280523e+01
517 1 2.61486080154847436e+01
518 1 1.78134039095295336e+01
519 1 3.87873613660641752e+01
520 1 3.45093329748781414e+01
521 1 2.46292528073740726e+01
522 1 1.85377697315515633e+01
523 1 1.13203926363896699e+01
524 1 1.07705122766387174e+01
525 1 1.35094130588156514e+01
526 1 1.29575699897209589e+01
527 1 3.83917443724382395e+01
528 1 2.27870401673873602e+01
529 1 2.43226878909178978e+00
530 1 3.69430046684456892e+00
531 1 5.72815145884460630e+00
532 1 3.49056224587245989e+00
533 1 8.96007222609691034e+00
534 1 4.95575507773072221e+00
535 1 1.43551133278709973e+01
536 1 1.63364554435776945e+01
537 1 1.11604333322796752e+01
538 1 2.26430731585428582e+01
539 1 7.14581985694126587e+00
540 1 4.52110133283659792e+01
541 1 4.25315983878344284e+01
542 1 3.62134814271994259e+01
543 1 1.80443499055442373e+01
544 1 1.89633685068557334e+01
545 1 1.78391953358790509e+01
546 1 1.60491668004087558e+01
547 1 1.48858045739902352e+01
548 1 1.78223513131955009e+01
549 1 1.83033058707014007e+01
550 1 1.83460258997820240e+01
551 1 1.61445743506157875e+01
552 1 1.72061379198971736e+01
553 1 1.47878144946071686e+01
554 1 1.49284761750184103e+01
555 1 1.75109166005025294e+01
556 1 1.54201862711636917e+01
557 1 1.41659787569262754e+01
558 1 1.59169934269127911e+01
559 1 1.21828791218928210e+01
560 1 1.88838069965039956e+01
561 1 1.67315750276941486e+01
562 1 2.66295225902524351e+01
563 1 2.35688351160240188e+01
564 1 2.05825315520815550e+01
565 1 8.94640404989471172e+00
566 1 7.51897479395345858e+00
567 1 1.65133610895146465e+00
568 1 1.40814666087751235e+01
569 1 7.53390733274041136e+00
570 1 1.18540696609914313e+01
571 1 9.38594452421649983e+00
572 1 1.48464177692411710e+01
573 1 8.70289667029983427e+00
574 1 1.79146980433699667e+01
575 1 1.53505412919377928e+01
576 1 3.22167739369548656e+01
577 1 3.25227148569131330e+01
578 1 3.62416299257089278e+01
579 1 3.07876763692028881e+01
580 1 3.08507411623251215e+01
581 1 2.82427537419960615e+01
582 1 3.14708135792382215e+01
583 1 3.05203173962494496e+01
584 1 3.18242583318849341e+01
585 1 3.22143380122673122e+01
586 1 2.50557793650816762e+01
587 1 3.08216004052709280e+01
588 1 2.28984982820737955e+01
589 1 2.42893268734937990e+01
590 1 2.33852843583410070e+01
591 1 2.03158422802478071e+01
592 1 2.07053147158473791e+01
593 1 3.57793211886321671e+01
594 1 3.91962494541374653e+01
595 1 2.28971877076659318e+01
596 1 3.52789298703297121e+01
597 1 2.96408616254537520e+01
598 1 2.57348849589176858e+01
599 1 2.46418725391290714e+01
600 1 2.89662401126526809e+01
601 1 1.83738752057458967e+01
602 1 1.61384923798645694e+01
603 1 2.78504907160737645e+01
604 1 1.41375583518273995e+01
605 1 2.49488727413527123e+01
606 1 2.62278860955193345e+01
607 1 2.53025214270179433e+01
608 1 2.17893183607278189e+01
609 1 3.44604089166456262e+01
610 1 3.78154450112863714e+01
611 1 5.02704181943492046e+01
612 1 4.26019681464594626e+01
613 1 5.13793544462534371e+01
614 1 5.70333255887188741e+01
615 1 4.82999858789136454e+01
616 1 4.16683594702945967e+01
617 1 4.05539280019079627e+01
618 1 3.88830893653308394e+01
619 1 3.95044731355402590e+01
620 1 3.69589368457196059e+01
621 1 4.10459937489036903e+01
622 1 3.36155052769312022e+01
623 1 2.10801799812364798e+01
624 1 3.69377235077491832e+01
625 1 4.25589961368958143e+01
626 1 4.94785097364496806e+01
627 1 4.77926772353113734e+01
628 1 5.16433680237172226e+01
629 1 4.17772373431466448e+01
630 1 5.51527786820711867e+01
631 1 3.76406220520428434e+01
632 1 2.31682796094817540e+01
633 1 3.66599543226179847e+01
634 1 2.84674251394925797e+01
635 1 3.96703838914210962e+01
636 1 3.82972608018287914e+01
637 1 4.05286283334385260e+01
638 1 3.87335823647489619e+01
639 1 3.41440690047457949e+01
640 1 3.70732470539438879e+01
641 1 3.57645882506839143e+01
642 1 3.06537399065141400e+01
643 1 3.30969662397125290e+01
644 1 3.29564244550293211e+01
645 1 3.50686197316918395e+01
646 1 3.92744994430062846e+01
647 1 3.57524674348887928e+01
648 1 3.14251073234095308e+01
649 1 3.87547051614981015e+01
650 1 3.36444283055941824e+01
651 1 2.74889758318895900e+01
652 1 3.29376563744761697e+01
653 1 3.01036519535481411e+01
654 1 4.48807280474981098e+01
655 1 3.04108047920470881e+01
656 1 4.66321874170255626e+01
657 1 4.19038716581297521e+01
658 1 5.05628806333594696e+01
659 1 5.21459830485046112e+01
660 1 4.00440437540503069e+01
661 1 4.34204298361652477e+01
662 1 5.15971051170722319e+01
663 1 3.92589539802849288e+01
664 1 4.34004137011073112e+01
665 1 3.28203464624891055e+01
666 1 3.28647895560560386e+01
667 1 3.40563260310418414e+01
668 1 2.09205337994201663e+01
669 1 2.88901953955166100e+01
670 1 3.88191980833372980e+01
671 1 4.59691797290462318e+01
672 1 3.60771980400481453e+01
673 1 2.97378346664719047e+01
674 1 2.70678388107726846e+01
675 1 1.86137265633968845e+01
676 1 2.07510417731817718e+01
677 1 2.30757429818752264e+01
678 1 1.74890436405782346e+01
679 1 1.75124874872195413e+01
680 1 1.57274107516581658e+01
681 1 1.21304054950387368e+01
682 1 1.44719499886243366e+01
683 1 1.30214724505430741e+01
684 1 1.81249414450464208e+01
685 1 1.24492346590010374e+01
686 1 2.75936494132464070e+01
687 1 2.06337710529494807e+01
688 1 1.30286997549730525e+01
689 1 1.68399937841905576e+01
690 1 2.82696144680065622e+01
691 1 2.44801383305756382e+01
692 1 1.95191763245222880e+01
693 1 4.03114573567981296e+01
694 1 4.03483579583308796e+01
695 1 3.60813977421611511e+01
696 1 3.48127455584172409e+01
697 1 3.66748488960745007e+01
698 1 3.36099821067558295e+01
699 1 2.46493991356278173e+01
700 1 1.46072772710041097e+01
701 1 9.35024837487170224e+00
702 1 2.28298029235065805e+01
703 1 2.58696836800759264e+01
704 1 1.39557481989744048e+01
705 1 3.30855318435389876e+01
706 1 4.47888679022947827e+01
707 1 4.58991944078849912e+01
708 1 3.68751703804274911e+01
709 1 4.11896046422767483e+01
710 1 3.15469478383000670e+01
711 1 3.21127444421398209e+01
712 1 3.35645760254593597e+01
713 1 3.28316445209166545e+01
714 1 3.05933777743944155e+01
715 1 3.35773883329166551e+01
716 1 2.39169648752918960e+01
717 1 2.24185363754112217e+01
718 1 3.15182139161564407e+01
719 1 3.24659514011295940e+01
720 1 2.97139705415634623e+01
721 1 2.74133175753371816e+01
722 1 3.06161612520726969e+01
723 1 3.31614677447890713e+01
724 1 3.36477633854039837e+01
725 1 3.41544013212097823e+01
726 1 3.16399446199631065e+01
727 1 3.25196249983814880e+01
728 1 3.19227839420779169e+01
729 1 3.32772001746444701e+01
730 1 3.32041283683162547e+01
731 1 3.34491853812114996e+01
732 1 3.01110586620616800e+01
733 1 3.04399210182253448e+01
734 1 3.91249905409999741e+01
735 1 3.28585220190592509e+01
736 1 1.95236790578502912e+01
737 1 2.73718825171336455e+01
738 1 3.28712877125347589e+01
739 1 2.84327523124160884e+01
740 1 2.37561983657014650e+01
741 1 2.20182828344384234e+01
742 1 1.39859326075064097e+01
743 1 2.34530489805434108e+01
744 1 1.16339446872230461e+01
745 1 1.84785136888612840e+01
746 1 1.84567498005261896e+01
747 1 4.45851742872305081e+01
748 1 1.74826256683844292e+01
749 1 2.55933419608629400e+01
750 1 2.51233165585861897e+01
751 1 2.84735902389915800e+01
752 1 2.10471792452040631e+01
753 1 2.79123935268324033e+01
754 1 1.54728839400356772e+01
755 1 1.36836361682687411e+01
756 1 2.61393013932932199e+01
757 1 3.02398944347890790e+01
758 1 2.02452208999470216e+01
759 1 1.77108220960502578e+01
760 1 1.86882947950197291e+01
761 1 2.30550015639347841e+01
762 1 2.19375021238221208e+01
763 1 1.71952575877179719e+01
764 1 1.82876708460954198e+01
765 1 1.82508134658461181e+01
766 1 4.23296243182110477e+00
767 1 6.15304462854708145e+00
768 1 3.10760496973431888e+00
769 1 2.57336330323681608e+01
770 1 2.65256112457156981e+01
771 1 1.91759804990381499e+00
772 1 2.05446039130246767e+01
773 1 2.36138092757939546e+01
774 1 3.40784347086609358e+01
775 1 2.46275241251975849e+01
776 1 4.02196330622432328e+01
777 1 3.89581561428030341e+01
778 1 3.94425975389313663e+01
779 1 3.76440987757232293e+01
780 1 3.09138747168075945e+01
781 1 2.08841316598032165e+01
782 1 2.25296593805148042e+01
783 1 2.99851846364623356e+01
784 1 3.29216191547622685e+01
785 1 3.31425450594519404e+01
786 1 2.51711481417514698e+01
787 1 2.09789044452324589e+01
788 1 2.70361400042279811e+01
789 1 1.84962204948163134e+01
790 1 1.17953935013943685e+01
791 1 1.65737737839463506e+01
792 1 1.59044300554467295e+01
793 1 3.76337241635648070e+01
794 1 1.23218507056994842e+01
795 1 1.79629469894455021e+01
796 1 1.26860454867831667e+01
797 1 2.88637715729742546e+01
798 1 2.83811516823557710e+01
799 1 2.82308026037589066e+01
800 1 2.92415051642154822e+01
801 1 1.64832963826387342e+01
802 1 3.76357107488870994e+01
803 1 3.89664761742173269e+01
804 1 4.19627165706915761e+01
805 1 1.56861818960135615e+01
806 1 1.65204847660047101e+01
807 1 2.66486069255611824e+01
808 1 3.29891121355262058e+01
809 1 3.03925162068659453e+01
810 1 2.96391259780326237e+01
811 1 2.73627753658804806e+01
812 1 2.83537846245635592e+01
813 1 2.57733891152813257e+01
814 1 3.23100702105097497e+01
815 1 2.73699764260037384e+01
816 1 2.92001091969034263e+01
817 1 1.99559959894302246e+01
818 1 2.58166071413087934e+01
819 1 2.08255923657262549e+01
820 1 2.95963697494398339e+01
821 1 2.94006989006689921e+01
822 1 2.80640277265357234e+01
823 1 1.22300762575062425e+01
824 1 1.14682334078855810e+01
825 1 1.63909496033785338e+01
826 1 1.43979955850266030e+01
827 1 1.33912219886423980e+01
828 1 2.06882578329088069e+01
829 1 2.76689681041104762e+01
830 1 3.24899081880599852e+01
831 1 2.84510646885625675e+01
832 1 3.14283713251538899e+01
833 1 2.81542481382759640e+01
834 1 3.17408051248033871e+01
835 1 1.84305378521222387e+01
836 1 2.47292874409962415e+01
837 1 4.19772706472628485e+01
838 1 3.57368498641110222e+01
839 1 2.33823580847493098e+01
840 1 3.09089858098168975e+01
841 1 2.51015906986636033e+01
842 1 3.14513806143969248e+01
843 1 2.94009712096548412e+01
844 1 3.49848717197015517e+01
845 1 2.58093043458565781e+01
846 1 2.28167647346882703e+01
847 1 2.81916669822443886e+01
848 1 3.44449216403540888e+01
849 1 1.73499919358979113e+01
850 1 2.14715404718169403e+01
851 1 2.00135572102402470e+01
852 1 2.63293849182206721e+01
853 1 3.83019029370897783e+01
854 1 1.32840359415294973e+01
855 1 2.43298617491985389e+01
856 1 2.14190832983498893e+01
857 1 1.82509811721274637e+01
858 1 2.84738632940507976e+01
859 1 2.47265299797331721e+01
860 1 2.65404908242706590e+01
861 1 2.01876374138692789e+01
862 1 2.43312615368003407e+01
863 1 2.91081187580637319e+01
864 1 2.29418005954525874e+01
865 1 2.16704726712708080e+01
866 1 3.11204426157739746e+01
867 1 3.34174092081241696e+01
868 1 2.15166446733238068e+01
869 1 2.17402926358788378e+01
870 1 3.09238796387179100e+01
871 1 2.59344540969201880e+01
872 1 3.96951766449113990e+01
873 1 3.90093598604524914e+01
874 1 3.33767322116072407e+01
875 1 3.74629389522592930e+01
876 1 2.90861115887781452e+01
877 1 3.35617352075838014e+01
878 1 2.27645418197555998e+01
879 1 1.12283772829578279e+01
880 1 1.35648452967499562e+01
881 1 1.18434689362010239e+01
882 1 1.88902059386105563e+01
883 1 1.96234840606906005e+01
884 1 1.82546352984691076e+01
885 1 1.68800061995491291e+01
886 1 1.67229978298234663e+01
887 1 3.39764211572749133e+01
888 1 3.45858211349058635e+01
889 1 3.21222453078010730e+01
890 1 2.17700208292500399e+01
891 1 2.48462410965784528e+01
892 1 2.61237033245545653e+01
893 1 2.60738271100211598e+01
894 1 4.37878552196168229e+01
895 1 3.27076899981671829e+01
896 1 2.51388558756722666e+01
897 1 3.80792978675656428e+01
898 1 4.04851690493415788e+01
899 1 4.12137511518780926e+01
900 1 1.59837677674482457e+01
901 1 2.13922755789396817e+01
902 1 1.63363231364856460e+01
903 1 3.72224259195986775e+01
904 1 4.44531292336019419e+01
905 1 2.73989679754478850e+01
906 1 3.38923634944626855e+01
907 1 3.28367302152125760e+01
908 1 2.90733192045964977e+01
909 1 2.89366081933690040e+01
910 1 2.77786537081628211e+01
911 1 2.90359107035070991e+01
912 1 3.69719807361930393e+01
913 1 3.51591172646063228e+01
914 1 3.16411398265332515e+01
915 1 4.03606702777260864e+01
916 1 3.62856035300754058e+01
917 1 3.13011605483023807e+01
918 1 1.96508611268511793e+01
919 1 2.15945826561055902e+01
920 1 2.51118205802676400e+01
921 1 2.41174798608745888e+01
922 1 1.66542328389184249e+01
923 1 1.64585622898102883e+01
924 1 1.92980497793726613e+01
925 1 3.88871854738212193e+01
926 1 3.77096057450655735e+01
927 1 3.87904311302617089e+01
928 1 3.34698087846130363e+01
929 1 2.80390523990572547e+01
930 1 2.61641941325610468e+01
931 1 2.91200754873075915e+01
932 1 3.11849621876545768e+01
933 1 3.16019717822026607e+01
934 1 2.65531893206480838e+01
935 1 2.87290994548292851e+01
936 1 3.23423148477132187e+01
937 1 2.68423052438661465e+01
938 1 2.39955202079074112e+01
939 1 2.08534507168984682e+01
940 1 3.35717441449362326e+01
941 1 4.45820257242510749e+01
942 1 2.68838466809754877e+01
943 1 2.74508655977337845e+01
944 1 1.07703102976876952e+01
945 1 2.00424831541119843e+01
946 1 3.84150584160076525e+00
947 1 2.04466512171552282e+01
948 1 2.33045051804392465e+01
949 1 2.07896653592572775e+01
950 1 2.11571141620006387e+01
951 1 1.47015234276930169e+01
952 1 2.44295526096712550e+01
953 1 2.14642954122228780e+01
954 1 2.97844408305263570e+01
955 1 3.01980629334621078e+01
956 1 2.87911325138611609e+01
957 1 3.17133742561490521e+01
958 1 2.89499190724861784e+01
959 1 2.21209193850542505e+01
960 1 2.13805336474448957e+01
961 1 2.58582956953528083e+01
962 1 2.44202383096910545e+01
963 1 3.95414303594594116e+01
964 1 2.64443931271043020e+01
965 1 1.66850402468901322e+01
966 1 2.56455513556435761e+01
967 1 1.04678123087646693e+01
968 1 3.14406054959394332e+01
969 1 2.38580052650090657e+01
970 1 2.82130101146673624e+01
971 1 5.31123612475022568e+01
972 1 5.08057567173086753e+01
973 1 4.25093979574504601e+01
974 1 1.22185193196800466e+01
975 1 1.23670087520183198e+01
976 1 2.92331134278977132e+01
977 1 9.45985620397730820e+00
978 1 1.39307393116002078e+01
979 1 2.40197505950715602e+01
980 1 5.27845846893291792e+01
981 1 5.20224768145717889e+01
982 1 3.29196264957550895e+01
983 1 1.40466716298971335e+01
984 1 1.61590259619086076e+01
985 1 1.42094548737937458e+01
986 1 1.99546665053956360e+01
987 1 1.91532078046950041e+01
988 1 1.86041005550609952e+01
989 1 1.83740206198000564e+01
990 1 2.62501890710632004e+01
991 1 1.65964846333637297e+01
992 1 2.19398516716612768e+01
993 1 3.45907633070575713e+01
994 1 9.61181322860884002e+00
995 1 4.56114898021903148e+00
996 1 1.32196320407960988e+00
997 1 1.16591533545857615e+01
998 1 2.54927431204078054e+01
999 1 3.43724235677162113e+01
1000 1 3.75872807115542145e+01
1001 1 2.88533628345113513e+01
1002 1 1.60794620567292483e+01
1003 1 2.90946551209218534e+01
1004 1 1.65523246453853368e+00
1005 1 2.23476529825174488e+01
1006 1 2.58602923429933398e+01
1007 1 2.48707176833771300e+01
1008 1 3.22153604016854800e+01
1009 1 1.62036866424714567e+01
1010 1 1.38388776946630507e+01
1011 1 2.64741855657706076e+01
1012 1 2.51808654701704171e+01
1013 1 1.85627168526907234e+01
1014 1 1.91805625877434842e+01
1015 1 2.68941074926278425e+01
1016 1 3.07884347784324888e+01
1017 1 1.63514957880488154e+01
1018 1 4.95714860451713761e+01
1019 1 1.96390964604814684e+01
1020 1 3.19717536391471278e+01
1021 1 4.74620217067665564e+01
1022 1 5.18942153379778048e+01
1023 1 1.38562157432971098e+01
1024 1 2.45485411160971196e+01
1025 1 4.06985286005324127e+01
1026 1 2.10740812690347425e+01
1027 1 3.11477564731252787e+00
1028 1 1.87306294989885735e+01
1029 1 2.35538428602783112e+00
1030 1 2.57284385830971241e+00
1031 1 4.90015714526573998e+00
1032 1 -2.31600089096385270e-01
1033 1 1.33613783217781794e+01
1034 1 5.36837462091733642e+00
1035 1 2.75664206780481464e+01
1036 1 1.32220505790683482e+01
1037 1 1.83564716575324809e+01
1038 1 1.08220164477841130e+00
1039 1 6.45886428417720992e+00
1040 1 1.36615293970436937e+01
1041 1 1.78528972545396982e+01
1042 1 9.03668766016864922e+00
1043 1 2.06297235019638059e+01
1044 1 5.36606258682209525e+00
