%%MatrixMarket matrix coordinate  real general
1044 1 1044
1 1 5.47124542527498079e+01
2 1 5.77745530236940965e+01
3 1 6.18030080702683193e+01
4 1 5.90239763224706380e+01
5 1 -7.72198546360878169e+00
6 1 -1.99895606609345663e+02
7 1 -1.79838516035138036e+03
8 1 -8.95288587990371639e+02
9 1 7.98296922324236817e+01
10 1 7.83293078765866682e+01
11 1 -2.43935732962309544e+02
12 1 -8.04723996932548175e+02
13 1 -1.17399074916075256e+03
14 1 -1.27870206784246579e+03
15 1 2.61185738980376755e+02
16 1 1.78570668072946228e+03
17 1 -1.81295579991246399e+02
18 1 -5.82409613119838468e+02
19 1 6.26780604766110400e+02
20 1 3.82194706264100205e+02
21 1 3.05367827428405519e+02
22 1 1.49775163234950298e+02
23 1 -3.15432029313677049e+02
24 1 -2.57127428283881557e+02
25 1 -2.36705622096038070e+02
26 1 -2.59309084091963371e+02
27 1 -5.39900897378972502e+01
28 1 3.30653109697503567e+01
29 1 1.22301674997526163e+02
30 1 5.15763504393308608e+02
31 1 6.29702227104314716e+02
32 1 6.38528200808029396e+02
33 1 6.38523389951612330e+02
34 1 6.38464362856728371e+02
35 1 6.25464813840442844e+02
36 1 5.33313961265492708e+02
37 1 3.55917592943792158e+02
38 1 1.65461473099174299e+02
39 1 8.91313373003634268e+01
40 1 8.23865105708678556e+01
41 1 8.12627653601650906e+01
42 1 8.03319259467258888e+01
43 1 7.60660986998459805e+01
44 1 3.15272391886466288e+01
45 1 7.56292181294791099e+00
46 1 -1.59578914338273989e+01
47 1 -1.27407744806012431e+02
48 1 -2.04811875855154625e+02
49 1 -3.92440267311040714e+01
50 1 9.97749159002211350e+00
51 1 1.41462673620874888e+01
52 1 1.20366137604977741e+00
53 1 -1.32175725488834772e-01
54 1 -1.87257618748247379e+00
55 1 -2.26306295508604993e+00
56 1 -2.27311240710969198e+00
57 1 -2.27913123154349284e+00
58 1 -2.39618941230785820e+00
59 1 -1.69625057708337890e+00
60 1 -4.28340057319020584e-01
61 1 3.29554360183994888e+00
62 1 8.75078995734375020e+00
63 1 1.20218286328789503e+01
64 1 1.49107033950315433e+01
65 1 1.94642823965454603e+01
66 1 2.19024854569902487e+01
67 1 2.88872859890524403e+01
68 1 3.01082844608852085e+01
69 1 3.78134425304604207e+01
70 1 2.95773339740842118e+01
71 1 2.19961306008863531e+01
72 1 1.53738719661632040e+01
73 1 1.32307308430666470e+01
74 1 7.14728660847460251e+00
75 1 5.77446375902797993e+00
76 1 3.52767488313370992e+00
77 1 -2.38308505824875176e+01
78 1 -5.26923099044943726e+01
79 1 -4.73530800362531821e+01
80 1 -4.35460693351857415e+01
81 1 -4.08970895030950814e+01
82 1 -3.77689808399111726e+01
83 1 -3.62626424211005443e+01
84 1 -3.47253417792731440e+01
85 1 -2.78545683202438461e+01
86 1 -2.28705520447125004e+01
87 1 -7.99003471464568449e+00
88 1 5.72082679426362084e+00
89 1 1.68466417621623989e+01
90 1 2.45944642108041016e+01
91 1 2.68231519389141013e+01
92 1 3.11662575690103090e+01
93 1 3.96383351706895510e+01
94 1 4.45592897066943010e+01
95 1 5.38281428452088235e+01
96 1 7.22027133465232538e+01
97 1 8.41281059860011453e+01
98 1 8.47313208079985429e+01
99 1 8.85509822355690659e+01
100 1 9.00063988083490472e+01
101 1 9.27738759934660067e+01
102 1 1.06769173351326486e+02
103 1 1.40402253557073720e+02
104 1 1.47205756943903111e+02
105 1 1.54722698410346084e+02
106 1 1.60972631953761322e+02
107 1 1.78875380065683316e+02
108 1 1.89975635750157807e+02
109 1 2.39022441679401084e+02
110 1 2.86329533516719266e+02
111 1 2.64427248143346617e+02
112 1 8.56926001429772271e+01
113 1 5.32433428024282236e+01
114 1 -3.67769581027896120e+00
115 1 -2.25253757594550734e+01
116 1 -1.14932208767445204e+02
117 1 -9.16123195222874216e+01
118 1 -4.90625579554490443e+01
119 1 2.06224118088062880e+02
120 1 2.99598407197808342e+02
121 1 4.10075966900333867e+02
122 1 4.19317791791736511e+02
123 1 5.58977962195843588e+02
124 1 6.10353718580926170e+02
125 1 6.48423991421632650e+02
126 1 4.43852143028285582e+02
127 1 2.84280469778635734e+02
128 1 -2.94199866111400468e+02
129 1 -3.75137554659530338e+02
130 1 -3.39189222548737291e+02
131 1 -3.18609166351382555e+02
132 1 -2.12957626249523884e+02
133 1 -1.21131652441954387e+02
134 1 -1.97649658806514417e+01
135 1 6.06847167555274964e+01
136 1 3.00199062418249873e+01
137 1 -2.28918351139284404e+01
138 1 -9.82722119293920855e+01
139 1 -1.06071118652518777e+02
140 1 -7.49081528409415256e+01
141 1 -6.30773900513553514e+01
142 1 -5.51884282756477660e+01
143 1 -4.06923974071039964e+01
144 1 -3.87608246041277340e+01
145 1 -3.04743428684893871e+01
146 1 -2.61714391293512918e+01
147 1 2.55723742791727986e+01
148 1 6.92890164106654964e+01
149 1 1.78365794401933101e+02
150 1 5.51350341457978317e+01
151 1 -1.80581775263229112e+01
152 1 -2.80042282728405269e+02
153 1 -2.33767424233752308e+02
154 1 9.74966230082237360e+01
155 1 1.36859396979120390e+02
156 1 1.58561515612558281e+02
157 1 1.64117932495106515e+02
158 1 1.76190256741217553e+02
159 1 1.86011665341730833e+02
160 1 1.59705043339008682e+02
161 1 1.42165848376508563e+02
162 1 7.35437168857702375e+01
163 1 3.54501722576853027e+01
164 1 3.28944881011772550e+00
165 1 6.49649718515361907e-01
166 1 2.36356226069056596e+00
167 1 8.58716118343309454e+00
168 1 1.02856928325259229e+01
169 1 1.37768866184626013e+01
170 1 1.56787755595326654e+01
171 1 2.12757063394546861e+01
172 1 2.75285523731878605e+01
173 1 4.08578376690391494e+01
174 1 3.32998216535229119e+01
175 1 -4.93527311647319955e+00
176 1 -7.57031628734371367e+01
177 1 -7.92297231298947313e+00
178 1 7.34854089397619106e+01
179 1 8.13574006664451446e+01
180 1 8.56198045684483162e+01
181 1 8.72599454185700409e+01
182 1 8.85954083209720125e+01
183 1 1.01007675305426474e+02
184 1 1.28762809485444251e+02
185 1 2.25680591295129972e+02
186 1 3.78037663492073477e+02
187 1 6.42939137092148371e+02
188 1 7.52793924395698468e+02
189 1 1.07381029526537554e+03
190 1 2.22311278836812079e+02
191 1 -8.72474410689127922e+02
192 1 -3.15020525745001896e+03
193 1 -1.05366601013691388e+03
194 1 1.29945143754285732e+03
195 1 -2.91933971382581262e+02
196 1 -2.62790101496577108e+02
197 1 -2.05053930796409446e+02
198 1 -1.59076871574026342e+02
199 1 -3.42475344406034239e+01
200 1 8.34909400895016063e+00
201 1 5.32629446303563086e+01
202 1 8.36357385525808894e+01
203 1 1.02694375269731353e+02
204 1 1.04829076816794071e+02
205 1 1.06439722707629656e+02
206 1 1.06529126139829842e+02
207 1 1.06572917242435139e+02
208 1 1.06588252265693029e+02
209 1 1.06726623629136540e+02
210 1 1.07473273807091701e+02
211 1 1.08572414346091989e+02
212 1 1.20139334222018206e+02
213 1 1.44542558156755291e+02
214 1 2.84277873224984319e+02
215 1 3.38224318337491070e+02
216 1 3.42295322540558800e+02
217 1 3.44888791468667364e+02
218 1 3.44415965670295691e+02
219 1 3.74609641312717372e+02
220 1 4.72916111329710020e+02
221 1 5.12790497275250232e+02
222 1 3.81805532649029033e+02
223 1 3.43560583205529440e+02
224 1 3.13065839107030627e+02
225 1 2.78601877306386598e+02
226 1 2.60762855177633298e+02
227 1 2.87507067638760304e+02
228 1 2.39079175490285962e+02
229 1 1.51196144782180568e+02
230 1 1.13383577733426819e+02
231 1 1.79412380033020696e+02
232 1 1.98829074655302094e+02
233 1 8.42981216267104827e+01
234 1 1.59056034352934965e+01
235 1 3.32437729005030107e+01
236 1 1.11221223826006565e+02
237 1 1.03071329862176327e+02
238 1 9.85252361640158369e+01
239 1 9.72402124820409028e+01
240 1 8.94910274620684305e+01
241 1 8.56569588701092073e+01
242 1 8.52406280790579558e+01
243 1 9.91736431538080581e+01
244 1 1.30765526454778865e+02
245 1 2.00832109159384572e+02
246 1 3.17928790292000940e+02
247 1 4.39308387369542174e+02
248 1 5.47902611387081265e+02
249 1 1.34761957318928444e+03
250 1 2.95940467728586782e+02
251 1 5.03087789416740137e+01
252 1 -6.00218148866454513e+01
253 1 -1.79228232816528759e+02
254 1 -3.26704866791835116e+02
255 1 -4.48039613910957485e+02
256 1 -4.88532255497773463e+02
257 1 2.75088332162892925e+02
258 1 5.65686517366971998e+02
259 1 -3.55535248994413962e+02
260 1 2.51275082023609258e+02
261 1 6.82135390493685350e+02
262 1 -2.41077081092655874e+02
263 1 -1.40595605272060226e+02
264 1 -4.04079143547898454e+01
265 1 3.83281966266498912e+01
266 1 5.16289638275999465e+01
267 1 1.06568978555269993e+02
268 1 -2.29033622261500058e+00
269 1 -2.13026554407249023e+02
270 1 -3.58664073067740560e+02
271 1 -3.49465099381815435e+02
272 1 -2.55939095934731824e+02
273 1 4.61687876450958299e+02
274 1 3.80613450454679935e+02
275 1 4.31557559870917544e+02
276 1 9.39439470463176605e+01
277 1 3.83032441159995329e+01
278 1 7.30530667996052863e+00
279 1 2.46992180984174496e+02
280 1 -4.29596622930171677e+01
281 1 3.46951341100989737e+02
282 1 -1.45591200081734726e+01
283 1 -2.16078837264317571e+02
284 1 2.75707432112185302e+02
285 1 1.13988924532478040e+03
286 1 6.96961119960320161e+01
287 1 1.67068498815279810e+02
288 1 -9.97137660963775687e+01
289 1 1.44744484099788480e+02
290 1 1.70706840589934131e+02
291 1 -1.59144509272190191e+02
292 1 4.15268233629629890e+02
293 1 -8.36458155827406813e+02
294 1 4.32441979868386625e+02
295 1 4.77003817175521139e+00
296 1 -3.63069776454400426e+02
297 1 2.69335803048488629e+02
298 1 2.01906403286100566e+00
299 1 -5.80750053669382780e+01
300 1 -9.83818190852187058e+02
301 1 3.45764107633172500e+02
302 1 -1.52217978926758207e+02
303 1 3.84663921313567073e+02
304 1 -2.43780280288968129e+02
305 1 3.32900996801505244e+02
306 1 -1.97321812112198813e+02
307 1 4.48040144625187452e+02
308 1 1.00187462594519232e+01
309 1 -1.22987049367474341e+02
310 1 8.82494454160786148e+01
311 1 3.16028528958470751e+01
312 1 1.37125775009852873e+03
313 1 5.53600538792269958e+01
314 1 5.89421787797623580e+01
315 1 -2.46877528625838323e+02
316 1 2.21633814679564892e+02
317 1 -2.73774661442642525e+02
318 1 1.22209913309439262e+01
319 1 -3.81662185956445228e+02
320 1 6.61760239580144685e+01
321 1 8.62552059933796187e+01
322 1 -1.37976366912157829e+02
323 1 5.06652742238944853e+01
324 1 -1.37458449852956166e+00
325 1 -4.96453868273135868e+00
326 1 6.73961724138750469e+02
327 1 -6.60424808942041697e+00
328 1 -3.20027400786901595e+01
329 1 -1.14959675935675918e+02
330 1 9.48910931112449134e+01
331 1 4.16518177035954920e+02
332 1 2.10244977341698132e+01
333 1 -7.51710953010094158e+02
334 1 1.24244275233432177e+03
335 1 1.71382295776364117e+02
336 1 -2.32280648220912497e+02
337 1 2.32050551602030964e+02
338 1 5.97171817799882163e+01
339 1 3.66951472299075760e+01
340 1 2.80213272347986958e+02
341 1 6.69217934097714533e+02
342 1 -7.89949705213582547e+02
343 1 7.86691463330267471e+00
344 1 1.53471243094436716e+02
345 1 2.60492694317096266e+02
346 1 3.78458237486157088e+02
347 1 9.33092280206221290e+01
348 1 2.72631271338961142e+02
349 1 4.43279680591120879e+01
350 1 -1.38148230166866256e+02
351 1 -1.14204079447666203e+02
352 1 -3.91055603567825585e+02
353 1 1.37603328349174689e+02
354 1 2.47628485933760345e+02
355 1 6.68052409299408509e+02
356 1 -3.99719057825722075e+02
357 1 -1.31831999820297597e+03
358 1 1.19381343572489277e+03
359 1 1.03040054868811495e+02
360 1 -1.23207546004027350e+02
361 1 3.83861045040820500e+02
362 1 -7.19370366221559294e+01
363 1 -1.81272368365619982e+01
364 1 2.55536866132081599e+02
365 1 3.45096741819623958e+02
366 1 1.09320105600290518e+02
367 1 -2.32173149782294619e+00
368 1 -2.77887262574407373e+02
369 1 -2.71023935362974612e+02
370 1 2.88182713201119384e+02
371 1 1.90816584716250333e+02
372 1 -7.47215261655540086e-01
373 1 8.56294078554363125e+01
374 1 2.22080374053469498e+01
375 1 -6.11138083239479428e+01
376 1 -2.75928524340065984e+01
377 1 -2.39918088921682298e+01
378 1 2.50387936171432216e+02
379 1 1.30534658439706192e+02
380 1 1.23127977780665120e+02
381 1 3.78809284235720014e+01
382 1 -1.42068244196855971e+02
383 1 4.91528349147875417e+02
384 1 -3.38894155786938285e+01
385 1 1.32435597093270072e+01
386 1 -1.20930067091653100e+02
387 1 -1.20747435335390506e+02
388 1 -2.50172386673955373e+02
389 1 -6.89539158523584888e+02
390 1 6.26445043882172214e+01
391 1 -4.27028408062132101e+01
392 1 5.99062275011586109e+01
393 1 2.34229721722227282e+02
394 1 3.30063971731846038e+02
395 1 2.66487687179453978e+01
396 1 -6.19099143207874135e+02
397 1 -3.63383762176128926e+02
398 1 1.00685891987638414e+02
399 1 3.23517739540514015e+02
400 1 -2.16783215989937105e+02
401 1 -1.72440751684560638e+02
402 1 7.31308464535206610e+01
403 1 -8.04893850582377468e+02
404 1 4.59225048456977945e+01
405 1 6.10144721219200960e+02
406 1 6.36658372466785295e+02
407 1 -1.05514416689244541e+02
408 1 1.26979785519301444e+02
409 1 -1.39374282284553630e+02
410 1 1.61684887077386804e+02
411 1 5.10757525193263007e+02
412 1 9.62812980817115658e+02
413 1 1.17072955349400502e+02
414 1 -2.32263002455409918e+02
415 1 1.31489581403309131e+02
416 1 9.23064450579981326e+01
417 1 -1.58780786393392049e+02
418 1 1.17297195840911328e+02
419 1 1.50334796758461209e+02
420 1 9.87401174026785384e+02
421 1 1.95089609647675445e+02
422 1 -8.59763026184308956e+02
423 1 -3.99449393223989432e+02
424 1 -1.10005832438023572e+03
425 1 3.58237762756825475e+02
426 1 -1.72150583898207174e+02
427 1 -9.78599120543127441e+01
428 1 -1.46758683458178211e+02
429 1 -5.22773810827231841e+02
430 1 -2.24548902209155557e+02
431 1 1.10187711941753332e+03
432 1 3.77148053806230905e+01
433 1 -4.63085449622588328e+02
434 1 1.46833570318706336e+02
435 1 -4.65210616684817335e+00
436 1 -4.64989157308932647e+02
437 1 -6.07349890135057649e+02
438 1 3.19914630874215106e+02
439 1 3.52280943041561841e+02
440 1 4.22228171078277398e+02
441 1 -6.43017521283858855e+02
442 1 -2.19847749168769241e+02
443 1 3.28610395636705505e+02
444 1 1.20617288798368165e+02
445 1 2.62423765832677361e+02
446 1 -5.93847689456457829e+02
447 1 1.09469273639822677e+03
448 1 3.46093934171556384e+02
449 1 -7.26860746374486894e+02
450 1 -2.18806365965367377e+03
451 1 6.49282762576816168e+01
452 1 4.22072087484103406e+02
453 1 9.69066863562733943e+02
454 1 7.28978541221753034e+01
455 1 2.04413754834095670e+02
456 1 -6.09271454860497329e+02
457 1 -3.76350365406866771e+01
458 1 6.43875869286867669e+02
459 1 -4.26089515542422214e+03
460 1 1.20739362940937053e+03
461 1 3.44842923870080426e+02
462 1 -3.04663870549129797e+02
463 1 3.87858943206145568e+02
464 1 -2.22041010679412182e+02
465 1 1.17322195978485041e+02
466 1 -1.08596106064270515e+02
467 1 4.18358057183840799e+02
468 1 2.62188632588688733e+02
469 1 3.76948496729652504e+02
470 1 -6.72233830551782830e+02
471 1 -2.19896207800792041e+02
472 1 -5.61804728893470511e+01
473 1 1.01209659467642581e+02
474 1 -6.31402558767625237e+01
475 1 -4.91537535017019877e+02
476 1 4.39179183800476494e+02
477 1 1.34272794086765293e+03
478 1 1.71019913663413035e+02
479 1 5.81394702177801719e+02
480 1 -2.19229412630137119e+02
481 1 -9.05963390972113274e+01
482 1 -1.99086011963162036e+02
483 1 -1.47629644187902276e+01
484 1 4.94525021119468818e+02
485 1 3.36125048817595271e+01
486 1 -2.36758033776393120e+01
487 1 -5.32554309130768615e+02
488 1 -1.80194262582526540e+03
489 1 6.68582424470910155e+01
490 1 -7.13140470570271567e+00
491 1 -3.00996944550692342e+03
492 1 3.53847330331190847e+02
493 1 -3.16864527956766210e+02
494 1 -4.16862274580277472e+02
495 1 9.19935400499905143e+01
496 1 8.54535775409292597e+00
497 1 3.43765475116189236e+01
498 1 1.20458409193200673e+01
499 1 -5.50877010524589750e+00
500 1 1.42138310902988909e+01
501 1 -1.32204177768968627e+01
502 1 1.45760831333772501e+02
503 1 -3.04796947706821982e+02
504 1 -7.34298427992715261e+01
505 1 -8.12300647397433906e+00
506 1 -2.91420056025214706e+02
507 1 -7.84895849306205037e+02
508 1 -3.05370465762884123e+02
509 1 6.65759574293429068e+01
510 1 2.70382044116588149e+00
511 1 9.34771184427720982e+02
512 1 2.11828640868072227e+02
513 1 1.04064242225745886e+02
514 1 -4.61511698701101807e+02
515 1 6.53672441102164726e+02
516 1 -8.61181953231414923e+01
517 1 -7.02354151265138142e+01
518 1 3.28147334830245029e+02
519 1 -2.95033158841895101e+02
520 1 -8.15058841325362096e+01
521 1 2.49820816383127010e+02
522 1 4.59135225430539890e+02
523 1 3.81990951189881343e+02
524 1 3.29562162291122263e+02
525 1 1.51533131511472106e+02
526 1 2.84423059913758379e+02
527 1 -1.81067773042734359e+02
528 1 1.10764353377562699e+02
529 1 6.35325214761709987e+01
530 1 2.53510001202177868e+01
531 1 3.38173782128694143e+01
532 1 1.10323977311910809e+02
533 1 1.02763763170792458e+03
534 1 3.09150038655809851e+02
535 1 3.89929558640744290e+02
536 1 1.13451192646279893e+02
537 1 4.24706194842358116e+01
538 1 -1.53559586042670428e+01
539 1 2.13664219835887764e+02
540 1 -3.37806663695308487e+02
541 1 -2.28263602756991503e+02
542 1 -1.46475509851749536e+02
543 1 5.81575908951697784e+02
544 1 3.17287338126598513e+02
545 1 -1.15617498404570981e+02
546 1 5.13870151069035330e+01
547 1 3.05827061118204483e+02
548 1 -4.29076004236376946e+02
549 1 1.00250323794143394e+01
550 1 -9.73669911018258176e+01
551 1 1.71785533135975328e+02
552 1 5.88077883290285968e+02
553 1 1.45484615061545583e+02
554 1 3.56933304554341760e+02
555 1 9.05550930753231341e+02
556 1 8.68345768106422327e+01
557 1 3.48046848260612549e+01
558 1 -5.93876124255861697e+01
559 1 2.14078215463597559e+01
560 1 -8.15161025056010544e+01
561 1 7.82313190380738632e+01
562 1 -4.78311613479147525e+02
563 1 -2.99255953247968137e+02
564 1 -1.38846087796286781e+02
565 1 2.55097707672082748e+02
566 1 9.90386176622000818e+01
567 1 2.28515703193521830e+02
568 1 2.10772957560229095e+01
569 1 6.61554465636924505e+01
570 1 -7.70488767982759115e-01
571 1 7.14287819696753701e+00
572 1 -4.20251250451775320e+01
573 1 8.05921077906305428e+00
574 1 1.66373939258688459e+01
575 1 -3.19475173369140002e+01
576 1 -6.34563823156255239e+02
577 1 -1.50007859824768957e+02
578 1 -1.11225617501766374e+03
579 1 1.55854931889591370e+02
580 1 9.81141341644869414e+01
581 1 8.99704116838360505e+02
582 1 -1.15305416011534263e+02
583 1 4.88103165761224176e+01
584 1 -8.14830006850081645e+00
585 1 -3.35138138669416719e+02
586 1 1.38977947562196590e+02
587 1 -4.47520932214465503e+01
588 1 1.75709199052722141e+02
589 1 1.47055876007148726e+02
590 1 1.85671611359564537e+02
591 1 -1.92935330296422740e+03
592 1 -4.49635137789757806e+01
593 1 -2.17838417754743006e+02
594 1 -3.29745793531843105e+02
595 1 2.04552466244486880e+02
596 1 -2.52697897972966757e+02
597 1 -3.16221185339987130e+02
598 1 -2.11582997210462480e+01
599 1 5.26728213116372558e+02
600 1 -2.52740627374609318e+02
601 1 9.43481125445355133e+02
602 1 3.45326269487911873e+02
603 1 4.53594381092546897e+01
604 1 5.89120422218404087e+02
605 1 -1.34961658801544246e+02
606 1 6.98669953929223766e+01
607 1 7.76388928728348873e+01
608 1 1.70607809134856979e+02
609 1 3.53960383262712412e+02
610 1 1.72174529852827220e+02
611 1 -1.46955604845793482e+03
612 1 -4.53204435124876113e+02
613 1 -5.61186239142585691e+02
614 1 -2.42259821113289718e+03
615 1 -5.30803859355955183e+02
616 1 8.57987100399647716e+02
617 1 6.54441490015154727e+02
618 1 2.95203473400924395e+02
619 1 2.92086571191538837e+02
620 1 1.70316354279762379e+02
621 1 -7.50228903916979135e+01
622 1 -4.94466886458510615e+01
623 1 1.15047494391669218e+01
624 1 -8.41362794997101844e+01
625 1 -1.66817617106443407e+02
626 1 -3.10618325242904120e+02
627 1 -3.74400665780485326e+02
628 1 -5.01848841755191756e+02
629 1 -2.49973660875265544e+01
630 1 -1.09595354415748398e+03
631 1 -1.28195053573807598e+02
632 1 3.54909753814742828e+02
633 1 -8.06512804951470571e+02
634 1 8.50832784663285793e+01
635 1 -8.77889909096936947e+01
636 1 6.52385123197724283e+02
637 1 -2.17232640846654135e+02
638 1 1.78969154327476218e+02
639 1 7.74377849724397720e+01
640 1 2.02728752419144485e+02
641 1 1.78994309434261538e+02
642 1 3.82656016246345132e+02
643 1 6.72795930915986219e+02
644 1 1.14602312061837688e+03
645 1 3.20124167976678166e+02
646 1 -2.30452958541113816e+02
647 1 -4.54723679142478545e+02
648 1 3.72835401573218633e+02
649 1 -3.51191024170306960e+01
650 1 -4.14259461165032050e+01
651 1 -1.57475653446176906e+01
652 1 -8.95888619399914035e+01
653 1 -3.65257339108461281e+01
654 1 -1.57978220540298321e+03
655 1 1.09450540740891810e+02
656 1 -3.02290151076156872e+03
657 1 -1.37706075100525914e+03
658 1 2.35919359097106280e+01
659 1 -8.98074309402840640e+02
660 1 9.64294055193313966e+02
661 1 2.13915007634602091e+02
662 1 -2.61383226981638046e+01
663 1 1.72852011383119645e+02
664 1 4.79036001434665071e+00
665 1 -8.64913519789485541e+00
666 1 2.38215103151017829e+01
667 1 -1.98586098198227319e+01
668 1 4.42762002956121350e+01
669 1 -2.66252786392067620e+01
670 1 3.63952449147670762e+01
671 1 3.21926024296158630e+02
672 1 -6.43450976704030175e+00
673 1 6.87277039857542604e+01
674 1 1.15837265089556524e+02
675 1 -5.97356446097105405e+01
676 1 1.02627973987998672e+02
677 1 5.08606804785100977e+01
678 1 1.31117872963777018e+02
679 1 -5.15828430856477326e+02
680 1 -1.67864533746335837e+02
681 1 1.11128361517803469e+02
682 1 3.06196975750496776e+01
683 1 1.89137453528167072e+02
684 1 1.15019466771955808e+03
685 1 4.74128878239514165e+02
686 1 5.05751818086238586e+02
687 1 -5.05463222893181054e+01
688 1 5.19726690387848180e+02
689 1 7.54367644539642242e+02
690 1 -1.46878115574451704e+03
691 1 4.71517982324448383e+02
692 1 1.64223792790833841e+02
693 1 -3.21597226284818476e+02
694 1 -3.45766094341347525e+02
695 1 -7.99419471578289404e+02
696 1 -8.88773810740046173e+01
697 1 -1.14245555239896646e+02
698 1 3.93699678873516348e+01
699 1 4.49409168466007714e+02
700 1 5.34552217173027557e+01
701 1 3.01101172469269386e+02
702 1 2.98316898782586236e+02
703 1 7.14777432288672117e+02
704 1 4.52646814499319589e+02
705 1 8.26491177534529697e+01
706 1 -2.68923460580135838e+02
707 1 -2.70580521013250745e+02
708 1 5.42081318470992983e+02
709 1 -4.60346947932741159e+02
710 1 8.33175699546283255e+01
711 1 7.40423223682624041e+01
712 1 -1.61366520412276515e+02
713 1 -3.40448925896284209e+02
714 1 -3.83425169529054756e+02
715 1 -6.21258837391886459e+02
716 1 2.49647839825318982e+02
717 1 7.30990582324730980e+01
718 1 -7.49981326950980360e+01
719 1 -5.75794455296145543e+02
720 1 6.43851457578677469e+01
721 1 1.20308494407380908e+03
722 1 1.70116351469646617e+02
723 1 -1.24684564205589496e+02
724 1 -3.34670641668479846e+02
725 1 -8.49872355034917518e+02
726 1 -5.96803990796501921e+02
727 1 -3.33112200322035292e+01
728 1 2.51406077397686722e+01
729 1 -2.22745466633233235e+02
730 1 9.36445032093488265e+01
731 1 4.49066334608146889e+01
732 1 6.73262891601747356e+02
733 1 3.34639364733438242e+02
734 1 -3.45514095195033349e+02
735 1 -1.10445488049495868e+01
736 1 4.93759155428364593e+01
737 1 -3.77075738595268888e+02
738 1 -6.51623975207685078e+01
739 1 -7.31513555085415987e+01
740 1 -1.06822813388100073e+02
741 1 6.48228279594263626e+01
742 1 3.74374939400968913e+02
743 1 6.91246425984966436e+02
744 1 3.42565369881955803e+02
745 1 3.58984269922039800e+02
746 1 2.81329325336162981e+02
747 1 -1.96373825683951253e+02
748 1 5.62556470047958257e+01
749 1 2.12906441259935408e-01
750 1 1.83724343795367389e+02
751 1 -8.34281119095127679e+02
752 1 4.57830321602229233e+01
753 1 -1.33619904925849283e+02
754 1 2.26465383324298614e+02
755 1 3.98711806177894232e+02
756 1 -9.80807289817797425e+01
757 1 -2.80128799152925296e+02
758 1 1.36159743517234695e+01
759 1 1.41028241669135355e+02
760 1 1.05329283936961502e+02
761 1 2.67969830438217627e+02
762 1 1.78773383080946928e+02
763 1 1.59203089127307663e+02
764 1 -2.22207230846579876e+02
765 1 5.85860016805228042e+02
766 1 3.19166594452193522e+01
767 1 4.23888242319926576e+01
768 1 1.02173183504060219e+02
769 1 -9.98662628652908495e+01
770 1 1.36141649969690917e+02
771 1 4.78465709953103726e+01
772 1 7.41411598793099870e+02
773 1 1.94887007576833025e+03
774 1 -5.19271429276755157e+02
775 1 3.00148301376449467e+02
776 1 -1.93420741434721049e+03
777 1 -3.69105577236069394e+02
778 1 -7.17186071152846921e+02
779 1 -2.67385181669976475e+02
780 1 4.67120275985802635e+01
781 1 4.69431690181004342e+01
782 1 -4.85994276607915836e+01
783 1 -5.40421206655899027e+02
784 1 -2.71353583080095575e+02
785 1 -6.97373361435011816e+01
786 1 3.51479464155926280e+02
787 1 -2.65411021537011152e+02
788 1 1.06361513843638932e+02
789 1 5.24959057438920240e+00
790 1 2.43176032004326089e+02
791 1 2.68875765176116090e+02
792 1 -2.75989709631556991e+02
793 1 -8.38639048601797981e+02
794 1 3.84981183036073631e+01
795 1 7.37459912948663572e+01
796 1 3.37360914622289101e+02
797 1 3.91443523968045568e+01
798 1 3.28973338470810432e+01
799 1 2.25331887977001877e+01
800 1 4.40350779308712745e+01
801 1 -6.23023245235006229e+01
802 1 -1.22851766235912066e+02
803 1 -1.40769175189366138e+02
804 1 -1.60458796293741057e+03
805 1 -5.14888920007565360e+01
806 1 -4.85075811572055784e+01
807 1 -2.01847032464036204e+02
808 1 -1.04527756066224038e+03
809 1 1.94646690094311282e+02
810 1 -3.81770321733829462e+02
811 1 4.40051149597870733e+02
812 1 1.60322665035463920e+01
813 1 7.25967517105336810e+01
814 1 -3.90020394301426734e+02
815 1 6.59409930818121893e+02
816 1 1.71089895006059237e+02
817 1 1.40164953319508214e+02
818 1 -2.76250503473295552e+01
819 1 -2.32023496052936267e+01
820 1 -6.72350601357657297e+02
821 1 2.25681543808746028e+02
822 1 5.15691495972086429e+01
823 1 2.12177308525969266e+02
824 1 1.86099385836011692e+02
825 1 2.44060426415609612e+02
826 1 1.52666321951068369e+02
827 1 3.05935589588152766e+02
828 1 1.08444574778541650e+02
829 1 -3.94325215572083181e+01
830 1 -1.21281349796724712e+02
831 1 -9.01667207347398261e+01
832 1 -6.50536553431324023e+02
833 1 7.04261297120218757e+01
834 1 -1.88084342336751729e+03
835 1 1.31017995532208062e+02
836 1 -1.95502914892089819e+02
837 1 -2.63312236939072409e+03
838 1 -5.44940136092609123e+02
839 1 3.31800448710978557e+01
840 1 -6.62685248385219268e+01
841 1 4.46501038596085138e+01
842 1 1.52970671939714748e+02
843 1 -3.70667824100404232e+02
844 1 -1.54189763775042508e+02
845 1 1.19879314259876722e+02
846 1 2.30613366958068440e+02
847 1 1.24508639829284409e+01
848 1 1.20434182969761707e+02
849 1 8.40673033995139349e+02
850 1 -7.13542376221079280e+02
851 1 4.30936699514977306e+02
852 1 -1.17990552777917756e+02
853 1 -8.52634972240346428e+02
854 1 5.06703173712285036e+02
855 1 3.15488765669267082e+02
856 1 3.35130814173687952e+02
857 1 1.31673925022931513e+02
858 1 4.45091514168265547e+01
859 1 5.22177952673597929e+02
860 1 2.53760181673268818e+02
861 1 1.91457651621098194e+03
862 1 5.91645025766021035e+02
863 1 5.23395237520256273e+02
864 1 7.42702301766975893e+02
865 1 1.44066818142499926e+02
866 1 -1.01833389015528621e+03
867 1 -3.14579062995862898e+02
868 1 1.69459617262580218e+03
869 1 6.22427542625141470e+01
870 1 -2.44978018706038625e+02
871 1 -8.47779688569771537e+01
872 1 -5.91396390555697394e+02
873 1 -4.45877199298436608e+02
874 1 1.02902300445575207e+02
875 1 -1.90910680704192885e+02
876 1 5.64663191468579384e+02
877 1 -1.39950589150925566e+02
878 1 5.50425813736927338e+01
879 1 2.71928946996645209e+02
880 1 4.80063165400084927e+02
881 1 5.21976054124247412e+02
882 1 -1.34444285561694301e+02
883 1 3.78918554525751072e-01
884 1 1.26074855177010207e+02
885 1 2.20493127685765913e+01
886 1 3.06604452110392401e+02
887 1 -3.79752987711927403e+02
888 1 -4.84032060166202996e+02
889 1 -4.13412727493032833e+02
890 1 4.04985194637541667e+02
891 1 1.57989327300113274e+02
892 1 -5.53589582143872803e+02
893 1 1.33273486450166899e+02
894 1 -9.24313146542008781e+02
895 1 2.47086122862319456e+02
896 1 3.57801583037410253e+01
897 1 -7.14389191431254062e+02
898 1 -7.97231044229255190e+02
899 1 -3.26092816973209210e+02
900 1 2.38265631113049210e+02
901 1 2.22029899669503095e+02
902 1 1.03333275783133899e+02
903 1 -1.84952195580420494e+02
904 1 -2.75075535342389060e+02
905 1 -9.52026612660935534e+00
906 1 -1.20776118551908326e+03
907 1 -7.47967411601837966e+02
908 1 -5.53740920883442200e+01
909 1 3.47971313801868405e+02
910 1 4.91951029643989443e+02
911 1 -1.00012537585821906e+03
912 1 -2.95624125826612897e+02
913 1 -1.13317252795578995e+02
914 1 5.85115685704302905e+02
915 1 -1.21082475042842157e+03
916 1 -3.90536017466939654e+02
917 1 -3.38511685126162547e+02
918 1 1.68377698925117102e+02
919 1 -3.48884925751460813e+01
920 1 -1.37381834105862390e+03
921 1 3.49375294736804918e+01
922 1 9.80517620070966984e+01
923 1 1.71871649838253262e+02
924 1 4.20066841826471489e+02
925 1 -3.80274147735012434e+02
926 1 -2.19460052852625722e+02
927 1 -3.42579972417930890e+02
928 1 -7.07687907261600344e+01
929 1 8.75705998269328205e+01
930 1 -1.02328375844044231e+02
931 1 6.31440565050081162e+01
932 1 -2.70347564059186027e+02
933 1 -1.14018037510185650e+03
934 1 -1.15517112424077567e+02
935 1 -3.64618101604344417e+02
936 1 -6.89717138304400351e+02
937 1 6.05007262773386174e+02
938 1 1.31190534202264615e+02
939 1 2.57135796307236262e+02
940 1 -3.50441208323956573e+02
941 1 -5.31191434302816560e+02
942 1 3.89890280221205359e+01
943 1 9.29671929786388546e+02
944 1 4.94508592489517014e+02
945 1 2.78053742629969847e+01
946 1 2.95510991424054588e+01
947 1 4.58268787606164878e+01
948 1 6.67076372101120540e+01
949 1 3.21891246875037496e+02
950 1 1.03705847117541657e+03
951 1 3.50801827959146635e+02
952 1 -5.37415990010136557e+00
953 1 1.25242376961787429e+02
954 1 -2.65660262666101403e+02
955 1 -1.34202734259852082e+03
956 1 1.57297112668971772e+03
957 1 -3.26842394707995894e+01
958 1 -4.33262264040205025e+01
959 1 8.50265985995807227e+02
960 1 1.35946392497474790e+03
961 1 2.67580957543186400e+02
962 1 1.91993921247803542e+02
963 1 -4.58942692338563745e+02
964 1 -1.20164775953460065e+02
965 1 2.65107596382382056e+01
966 1 2.73995071704702475e+01
967 1 3.09217333825474583e+01
968 1 -3.27286753942448954e+01
969 1 6.33443929195472251e+01
970 1 -6.23282114727710024e+01
971 1 -1.20474835880895898e+03
972 1 -7.76452372750999984e+02
973 1 -3.67272919225393252e+02
974 1 1.84113437030008640e+02
975 1 3.81569264502184637e+02
976 1 2.98523667947671356e+02
977 1 1.60995172397000061e+02
978 1 3.21268788304888403e+02
979 1 6.04482814384103790e+02
980 1 -9.17737377339615250e+02
981 1 -3.37539492871433686e+03
982 1 -2.14485578714230883e+02
983 1 5.99516612180426137e+02
984 1 5.06138678513926607e+02
985 1 3.50908914637572423e+02
986 1 2.29021607954216876e+02
987 1 3.52684763107752246e+02
988 1 1.13884305226961169e+03
989 1 3.13094249887879130e+02
990 1 4.83275266351776168e+02
991 1 -2.96143022794112767e+01
992 1 2.90907440462880857e+02
993 1 9.04308267742347454e+01
994 1 1.23079805987114227e+02
995 1 4.41389542345362656e+02
996 1 1.16259176218376339e+02
997 1 -5.20390638619759027e+00
998 1 -2.08016167983962731e+02
999 1 4.62207414618229464e+01
1000 1 4.12300978627354198e+01
1001 1 1.28410798026755998e+02
1002 1 1.50948237913458428e+02
1003 1 -7.46030701544719818e+02
1004 1 7.29677310961331074e+01
1005 1 4.40880354926477480e+02
1006 1 1.04178499846692966e+03
1007 1 5.95377914717595786e+02
1008 1 -3.50609838938514315e+02
1009 1 4.94409258386053409e+02
1010 1 3.24282239690096048e+02
1011 1 3.37954818897523865e+02
1012 1 3.39111560166040590e+02
1013 1 -1.89149545550071878e+02
1014 1 2.65677466121203054e+02
1015 1 1.20474913652294063e+02
1016 1 -1.10897563809388842e+02
1017 1 3.36031410988666892e+02
1018 1 -4.81734306183829631e+02
1019 1 9.70657484626232190e+01
1020 1 1.29583871383666747e+02
1021 1 -5.53720703992717631e+02
1022 1 -2.69826121159355625e+03
1023 1 3.01934724037699937e+02
1024 1 2.14124521019877534e+02
1025 1 -4.81266080444060037e+02
1026 1 -3.82752515909400756e+02
1027 1 4.17500468270699798e+02
1028 1 -3.80276581637744115e+01
1029 1 1.08237434570418046e+02
1030 1 1.11292944010579745e+02
1031 1 2.45473844623533886e+01
1032 1 6.50395761170905303e+02
1033 1 -2.79772738834953483e+00
1034 1 8.23694714128507030e+02
1035 1 1.00961425818249921e+01
1036 1 7.79951134596882127e+01
1037 1 -3.87058140309445491e+02
1038 1 1.06001688185541781e+02
1039 1 9.53132504266509386e+01
1040 1 -3.89632423702221828e+01
1041 1 1.86293331780633423e+02
1042 1 5.46224533076137618e+02
1043 1 -1.19895236840691325e+02
1044 1 1.23086166023742116e+01
