%%MatrixMarket matrix coordinate  real general
100 1 100
1 1 1.65198681425768101e-01
2 1 1.67364867269490680e-01
3 1 1.65917135703410684e-01
4 1 1.60915779589041102e-01
5 1 1.54955432782839797e-01
6 1 1.52858512028180044e-01
7 1 1.52386335338914991e-01
8 1 1.48771066293873627e-01
9 1 1.45911463248676765e-01
10 1 1.47564327666162620e-01
11 1 1.55471640367393776e-01
12 1 1.63947371315198487e-01
13 1 1.76651246100714004e-01
14 1 1.89089954802524496e-01
15 1 1.97319422685629686e-01
16 1 2.03292237129061193e-01
17 1 2.06779764550575729e-01
18 1 2.07632766683300496e-01
19 1 2.07116945823462378e-01
20 1 2.05798031138172827e-01
21 1 2.14021020682246654e-01
22 1 2.22841776696512173e-01
23 1 2.23248494346897253e-01
24 1 2.25450814806574890e-01
25 1 2.31485879742806266e-01
26 1 2.30232227388467325e-01
27 1 2.30338770462865772e-01
28 1 2.30978172441598129e-01
29 1 2.37276201553732358e-01
30 1 2.44738611049230170e-01
31 1 2.53102618464184859e-01
32 1 2.57912390645767597e-01
33 1 2.66130431847403426e-01
34 1 2.81959350774571293e-01
35 1 2.89965147094049636e-01
36 1 2.97274410013617929e-01
37 1 3.07062281431199013e-01
38 1 3.19008882903583202e-01
39 1 3.35384868153278948e-01
40 1 3.51909687242765223e-01
41 1 3.63419594203476415e-01
42 1 3.85081141570739749e-01
43 1 4.16659571140693685e-01
44 1 4.42528098045654128e-01
45 1 4.71016212953290936e-01
46 1 4.95621725702465987e-01
47 1 5.09429196450461919e-01
48 1 5.20086961624350530e-01
49 1 5.39121891585903512e-01
50 1 5.49676319678632730e-01
51 1 5.62282363478451619e-01
52 1 5.73016091867972865e-01
53 1 5.82616002212627659e-01
54 1 6.01798835967668144e-01
55 1 6.32261722350978550e-01
56 1 6.59879058282900832e-01
57 1 6.80550255891875455e-01
58 1 6.97846537414826940e-01
59 1 6.99179303770348759e-01
60 1 6.99905687094050322e-01
61 1 7.18145780796847100e-01
62 1 7.48594914981618786e-01
63 1 7.88573185184902270e-01
64 1 8.13353262023397305e-01
65 1 8.32498933048434142e-01
66 1 8.66227700367755094e-01
67 1 8.73879840557658660e-01
68 1 8.98104409470816711e-01
69 1 9.23624563317854141e-01
70 1 9.43772384090151073e-01
71 1 9.60955913139448392e-01
72 1 9.77278212457738160e-01
73 1 1.00968406338613925e+00
74 1 1.03428604368882149e+00
75 1 1.05405161158123928e+00
76 1 1.06900057651765090e+00
77 1 1.08124290599925676e+00
78 1 1.09090187984332476e+00
79 1 1.09925471270299013e+00
80 1 1.10609477888855467e+00
81 1 1.11165734385399029e+00
82 1 1.11617163410768216e+00
83 1 1.11982810986770476e+00
84 1 1.12278311773941253e+00
85 1 1.12516732111323581e+00
86 1 1.12708725606176086e+00
87 1 1.12863111855998421e+00
88 1 1.12987158818705158e+00
89 1 1.13086742785139549e+00
90 1 1.13166754723332841e+00
91 1 1.13231042040899377e+00
92 1 1.13282761067143478e+00
93 1 1.13324461822710987e+00
94 1 1.13358126197654352e+00
95 1 1.13385314013314242e+00
96 1 1.13407415019063151e+00
97 1 1.13425438064465389e+00
98 1 1.13440093032797984e+00
99 1 1.13452198617642797e+00
100 1 1.13461973622653289e+00
