%%MatrixMarket matrix coordinate  real general
4179 1 4179
1 1 2.71237743587619029e+01
2 1 2.68762290437467293e+01
3 1 2.69227643336208651e+01
4 1 2.69817437890702756e+01
5 1 2.77466038986147829e+01
6 1 2.93775492383509622e+01
7 1 3.24237676110785884e+01
8 1 3.10178238235249104e+01
9 1 2.38386550072219627e+01
10 1 2.88465334176519619e+01
11 1 4.27747960415221229e+01
12 1 5.60660773490311399e+01
13 1 5.26657487886054483e+01
14 1 4.22345167782863342e+01
15 1 2.51234297443941550e+01
16 1 1.63817623760926985e+01
17 1 2.11795892220314848e+01
18 1 1.98446069337786177e+01
19 1 1.69298647343200876e+01
20 1 1.65943379346856297e+01
21 1 1.62057907396518317e+01
22 1 1.80620387370066382e+01
23 1 2.02208294103896371e+01
24 1 2.19891450357217622e+01
25 1 2.04197349253322535e+01
26 1 1.95168852949270075e+01
27 1 1.90945352291379287e+01
28 1 1.83693961816441664e+01
29 1 1.60678007502281872e+01
30 1 1.01145871960261005e+01
31 1 6.13249075878314631e+00
32 1 2.04918914063897895e-01
33 1 -2.95484397518638447e-02
34 1 1.39287780807669792e+00
35 1 2.46115518014447954e+00
36 1 8.04177326169627982e+00
37 1 1.24101097663854016e+01
38 1 1.41847764690612710e+01
39 1 1.29624184046441648e+01
40 1 1.26128365764767807e+01
41 1 1.20158153552794644e+01
42 1 1.19395801947140576e+01
43 1 1.27530029155892333e+01
44 1 1.50748797150232399e+01
45 1 1.62719535533402464e+01
46 1 1.78093637500811575e+01
47 1 2.31585956327113216e+01
48 1 2.52965618806104402e+01
49 1 2.01701646530243934e+01
50 1 1.74847757742927570e+01
51 1 1.54361396227995940e+01
52 1 1.45985221137211312e+01
53 1 1.44360020105378641e+01
54 1 1.37679794169249696e+01
55 1 1.35998857382742244e+01
56 1 1.35925731863504407e+01
57 1 1.35859835591486462e+01
58 1 1.33671455200856073e+01
59 1 1.28766346398295966e+01
60 1 1.22345910502058555e+01
61 1 1.08575858081904979e+01
62 1 9.44117328599354622e+00
63 1 8.64834820780392910e+00
64 1 8.07261735977242090e+00
65 1 7.17518588241494992e+00
66 1 6.68481747447008345e+00
67 1 5.38731017723747829e+00
68 1 5.19871560779010622e+00
69 1 4.29768306059378613e+00
70 1 4.03705645491316378e+00
71 1 4.22447381540972078e+00
72 1 4.46957434194943648e+00
73 1 4.55707635761458096e+00
74 1 5.01078316825122183e+00
75 1 5.13170474917284736e+00
76 1 5.81763063137199410e+00
77 1 8.07713068100489018e+00
78 1 1.21057092904636097e+01
79 1 1.25436774723425053e+01
80 1 1.27050436423893824e+01
81 1 1.28178924477946961e+01
82 1 1.29517324508203657e+01
83 1 1.29908959794146313e+01
84 1 1.30749948014624948e+01
85 1 1.34269489343270916e+01
86 1 1.39651745367545370e+01
87 1 1.56953158665756565e+01
88 1 1.80230877235115727e+01
89 1 1.96067635506313209e+01
90 1 1.98912675836535122e+01
91 1 1.98385638546095713e+01
92 1 1.98998953631267774e+01
93 1 2.02844208385380611e+01
94 1 2.05685720348912930e+01
95 1 2.05862780428173657e+01
96 1 1.97638331281454285e+01
97 1 1.82396010292876447e+01
98 1 1.79204302532224737e+01
99 1 1.78322425647237104e+01
100 1 1.78954802840282099e+01
101 1 1.86639191657941126e+01
102 1 1.97089301481323638e+01
103 1 2.04033315773492170e+01
104 1 2.04701717561314389e+01
105 1 2.06315618018959626e+01
106 1 2.06574905753030329e+01
107 1 2.11111096429186880e+01
108 1 2.21824339047637515e+01
109 1 1.94631759722680968e+01
110 1 1.52504770188491623e+01
111 1 1.23418538527787796e+01
112 1 1.16684244455639696e+01
113 1 1.18315326884103147e+01
114 1 1.24577817793326915e+01
115 1 1.27479938521216472e+01
116 1 1.46702971328048530e+01
117 1 1.46071494452689006e+01
118 1 1.28573282946764795e+01
119 1 6.98446235543251337e+00
120 1 4.27035405825251058e+00
121 1 2.03310105968204713e+00
122 1 1.97807193117768554e+00
123 1 2.69173684668569058e+00
124 1 3.67968705952298425e+00
125 1 8.95243911287137450e+00
126 1 9.67486743279915729e+00
127 1 1.07801829510446066e+01
128 1 1.68639241605653680e+01
129 1 1.91703036277409176e+01
130 1 1.98972827006870290e+01
131 1 1.97925731354620424e+01
132 1 1.88697677761161700e+01
133 1 1.77353043467354361e+01
134 1 1.61898257553848346e+01
135 1 1.49226600636384941e+01
136 1 1.58040058244403276e+01
137 1 1.70425114289637278e+01
138 1 1.78325129253401293e+01
139 1 1.55625149396827229e+01
140 1 9.65621736134300335e+00
141 1 8.18488526839036545e+00
142 1 7.62391265589528100e+00
143 1 6.36491416562884815e+00
144 1 6.40130125803686489e+00
145 1 7.53786984064261478e+00
146 1 8.14486189457777066e+00
147 1 1.01111771508346315e+01
148 1 1.13809989488989132e+01
149 1 1.28903025819594408e+01
150 1 1.51913861117036841e+01
151 1 1.69242667001083333e+01
152 1 2.11691574613402871e+01
153 1 2.09670982058086359e+01
154 1 1.79609056705423527e+01
155 1 1.61922679494212574e+01
156 1 1.54612170964954494e+01
157 1 1.53067291467938045e+01
158 1 1.56069944390335440e+01
159 1 1.63054566363426154e+01
160 1 1.73387329009296742e+01
161 1 1.76266175368206071e+01
162 1 1.89402131539586307e+01
163 1 2.03792743075105030e+01
164 1 2.31297409204230746e+01
165 1 2.45824567433338146e+01
166 1 2.82476267745833347e+01
167 1 2.90358980229011685e+01
168 1 2.92497118636088729e+01
169 1 2.95645340765480746e+01
170 1 2.96931802076028255e+01
171 1 2.98824714423144115e+01
172 1 3.00963739722142876e+01
173 1 3.10046720111139607e+01
174 1 3.13985179100626226e+01
175 1 3.17312242491612437e+01
176 1 2.94916638846431987e+01
177 1 2.34042352195702392e+01
178 1 1.68252849639922353e+01
179 1 1.56625435128924906e+01
180 1 1.53442846920653988e+01
181 1 1.50724885876809918e+01
182 1 1.50775746459188920e+01
183 1 1.53174368702680930e+01
184 1 1.53936537521605903e+01
185 1 1.41483563524350711e+01
186 1 1.24081677844147311e+01
187 1 1.18436607756641106e+01
188 1 1.23005912164778035e+01
189 1 1.39114161146832771e+01
190 1 2.01378013388170451e+01
191 1 3.10554822647043949e+01
192 1 3.36301575505713188e+01
193 1 3.00204626392754967e+01
194 1 1.49282761866626288e+01
195 1 2.51932870240861178e+01
196 1 2.49859360681559259e+01
197 1 2.41170948490916714e+01
198 1 2.28855385733601828e+01
199 1 1.76757631458982694e+01
200 1 1.52862732937915311e+01
201 1 1.25304408284624955e+01
202 1 9.89192022389052639e+00
203 1 6.53842682481800441e+00
204 1 5.90334130163805071e+00
205 1 4.61408235793441435e+00
206 1 4.20875955622168618e+00
207 1 4.10060329394559187e+00
208 1 4.22037315581941108e+00
209 1 4.50900181637613162e+00
210 1 5.73503589476614639e+00
211 1 6.07793338420954221e+00
212 1 8.46509180331015898e+00
213 1 9.88302750957062415e+00
214 1 1.02161290512537732e+01
215 1 9.46680947649357130e+00
216 1 8.51690300892340169e+00
217 1 8.24896102822614097e+00
218 1 8.56784328751902891e+00
219 1 9.21975989890797187e+00
220 1 1.13485050565500032e+01
221 1 1.22995544854004049e+01
222 1 1.32618056081208842e+01
223 1 1.34061936412658120e+01
224 1 1.36676919299510580e+01
225 1 1.46197730579759408e+01
226 1 1.61598993316631940e+01
227 1 1.63238107045673075e+01
228 1 1.74151898338493503e+01
229 1 1.77457972707913925e+01
230 1 1.82735377028077934e+01
231 1 1.86483154539331011e+01
232 1 1.88465496208941907e+01
233 1 1.94364171776235963e+01
234 1 2.02150546331382408e+01
235 1 2.00527649972512094e+01
236 1 1.92916457097456835e+01
237 1 1.80851709416229660e+01
238 1 1.79245251162483150e+01
239 1 1.78626213567997993e+01
240 1 1.79142765071958543e+01
241 1 1.80629336748239808e+01
242 1 1.84249375617791493e+01
243 1 1.86747181857080129e+01
244 1 1.90041699625008604e+01
245 1 1.92063606482842744e+01
246 1 1.95676874444144921e+01
247 1 1.99632844755571348e+01
248 1 2.00445200358015256e+01
249 1 2.00039815092630171e+01
250 1 2.89495483962586029e+01
251 1 3.50376543140768817e+01
252 1 3.76870747527034240e+01
253 1 4.07983686752070085e+01
254 1 4.19887992937159567e+01
255 1 4.19661496346680565e+01
256 1 4.06823451026163596e+01
257 1 3.11590547554123418e+01
258 1 2.94335864375586489e+01
259 1 3.36430874388533283e+01
260 1 3.04818472112395362e+01
261 1 2.90508982182082285e+01
262 1 3.29635280764451934e+01
263 1 3.24832790485062830e+01
264 1 3.07937148236027980e+01
265 1 2.83365414440322461e+01
266 1 2.73536181951511601e+01
267 1 4.16144069823995277e+00
268 1 1.35539807386027302e+01
269 1 2.13722635031835217e+01
270 1 2.19610959405533066e+01
271 1 2.18408147184031911e+01
272 1 2.08066516050519290e+01
273 1 2.05092521858683590e+01
274 1 2.11413907673819317e+01
275 1 2.82933010882947711e+00
276 1 2.31744698568174190e+00
277 1 2.22393889985555404e+00
278 1 2.69155296650644260e+00
279 1 2.12865792280188915e+00
280 1 1.78990379038507825e+01
281 1 1.78703896615019424e+01
282 1 1.21123390661706676e+01
283 1 1.20242122273051066e+01
284 1 2.29002763491248764e+01
285 1 2.73393673817053333e+01
286 1 3.07717772133295249e+01
287 1 6.96126816436963214e+00
288 1 6.68575712761143759e+00
289 1 7.29194749525010266e+00
290 1 6.77051166402571258e+00
291 1 9.90965940568274561e+00
292 1 8.66702891958338029e+00
293 1 6.84827765769226726e+00
294 1 6.96564194846631235e+00
295 1 3.52836608782802372e+01
296 1 3.27366970409922828e+01
297 1 2.08756362215624094e+01
298 1 1.81135231725006989e+01
299 1 1.34959059614003660e+01
300 1 1.25334350639456638e+01
301 1 1.35672645784309385e+01
302 1 1.66073092166113945e+01
303 1 1.54014171702746747e+01
304 1 1.89145707517209907e+01
305 1 2.57529069884813389e+01
306 1 2.48229814264703244e+01
307 1 9.73491184643510366e+00
308 1 7.76083773221283391e+00
309 1 3.68622011429876073e+00
310 1 2.37589323561810986e+01
311 1 2.00729709151259108e+01
312 1 1.89873770526794452e+01
313 1 2.93226018365555881e+01
314 1 5.94147462138193294e+00
315 1 6.43898656964165905e+00
316 1 5.38818548838985745e+00
317 1 5.31633262783871618e+00
318 1 5.92444175449226496e+00
319 1 5.66549677595229273e+00
320 1 4.82000944766643524e+00
321 1 5.04902482743476710e+00
322 1 1.22375472247642971e+01
323 1 1.07643327410778706e+01
324 1 7.43893283344122214e+00
325 1 1.65932985877962160e+01
326 1 1.37256461473817204e+01
327 1 1.55945475007630261e+01
328 1 1.60781824030423444e+01
329 1 1.83034040014699926e+01
330 1 1.83963095306823021e+01
331 1 5.96939052350746113e+00
332 1 3.29511036391438665e+01
333 1 2.36556894484735096e+01
334 1 1.92391294623322651e+01
335 1 1.77999344662630961e+01
336 1 1.72426113142722990e+01
337 1 8.52457719570849548e+00
338 1 8.14352173284274272e+00
339 1 1.26089122283754147e+01
340 1 1.48959151055532608e+01
341 1 1.90091347980545571e+01
342 1 1.93612825459318678e+01
343 1 1.25286869234108238e+01
344 1 1.37823161332855495e+01
345 1 1.58307959332678720e+01
346 1 2.23269651333338253e+01
347 1 2.53432494112931188e+01
348 1 2.80183201597300879e+01
349 1 3.13644016982528235e+01
350 1 2.95210455428975038e+01
351 1 3.03751993369336155e+01
352 1 2.75880236950751900e+01
353 1 2.60163124044689091e+01
354 1 2.92569624623181994e+01
355 1 2.63825724066358696e+01
356 1 2.71568598611491829e+01
357 1 2.86315553614272176e+01
358 1 2.18605819203743330e+01
359 1 2.42073388920715331e+01
360 1 1.00138824965936628e+01
361 1 9.43051046634309564e+00
362 1 8.09582298967477954e+00
363 1 1.23869159161612981e+01
364 1 1.07847738417018544e+01
365 1 1.26930125945857473e+01
366 1 2.09717350704713574e+01
367 1 2.08817374456220008e+01
368 1 1.97936157009719054e+01
369 1 1.79092866136782298e+01
370 1 1.71472490720323627e+01
371 1 1.65854250822710227e+01
372 1 1.84085817863109220e+01
373 1 1.49012007975071246e+01
374 1 1.49157487750565192e+01
375 1 1.46759184508325191e+01
376 1 1.47232102268836869e+01
377 1 1.44684761131875561e+01
378 1 1.45032747622052813e+01
379 1 1.51314397477672653e+01
380 1 1.51422050687879270e+01
381 1 1.72496674221719779e+01
382 1 1.56344917242112533e+01
383 1 1.52451264440656278e+01
384 1 1.53706001843619937e+01
385 1 1.51148586762675201e+01
386 1 1.48946899700700968e+01
387 1 1.55161193305644414e+01
388 1 1.54034295945309143e+01
389 1 1.54410382748512429e+01
390 1 1.52268325888487190e+01
391 1 1.60405168679730288e+01
392 1 1.61640331734246807e+01
393 1 1.56760615578873281e+01
394 1 1.56505853687667980e+01
395 1 1.46033764078100088e+01
396 1 1.53366895998108106e+01
397 1 1.55652312926650431e+01
398 1 1.92786009971918020e+01
399 1 1.99349186207631313e+01
400 1 2.06255988345467394e+01
401 1 2.12422184544692030e+01
402 1 2.16336341662217038e+01
403 1 2.12560671161373129e+01
404 1 2.11479169193596732e+01
405 1 2.09249237962322425e+01
406 1 2.18978576907757585e+01
407 1 2.09208191637868488e+01
408 1 1.96976517941403877e+01
409 1 1.97591607788763213e+01
410 1 1.93522943044182725e+01
411 1 1.82825976462742226e+01
412 1 2.35699263650613489e+01
413 1 2.45232973461835932e+01
414 1 1.27379559731526282e+01
415 1 1.25127508319351524e+01
416 1 1.17492220469581241e+01
417 1 1.50899645375524489e+01
418 1 1.35954215714601627e+01
419 1 2.03487084676742960e+01
420 1 1.66937283561619445e+01
421 1 1.47648896760865576e+01
422 1 1.56943792757962903e+01
423 1 1.68963764351498931e+01
424 1 1.96990426895822388e+01
425 1 1.77843287436361948e+01
426 1 1.75541769447622187e+01
427 1 1.99270844583366227e+01
428 1 1.86013057077884234e+01
429 1 1.84904347926300581e+01
430 1 1.99840945486735357e+01
431 1 1.37158357167475629e+01
432 1 1.58969427490166098e+01
433 1 1.38173884387871695e+01
434 1 1.29990478220152319e+01
435 1 1.15341080418607778e+01
436 1 1.08467364609408232e+01
437 1 8.07092066472890579e+00
438 1 7.39264052153224416e+00
439 1 6.64208825631832323e+00
440 1 8.85928838040719313e+00
441 1 8.91292649289349015e+00
442 1 2.32814310941878695e+01
443 1 1.74101175008977442e+01
444 1 1.80704007849903796e+01
445 1 2.13297473056408116e+01
446 1 2.31249076911729041e+01
447 1 2.47662325100122978e+01
448 1 2.03070508738184508e+01
449 1 2.30609886179070713e+01
450 1 2.52879055787305980e+01
451 1 2.23921125626948658e+01
452 1 2.20657333272232989e+01
453 1 1.40142829908368896e+01
454 1 1.53105734739034318e+01
455 1 1.47603788659918411e+01
456 1 1.39912389878745653e+01
457 1 1.41692386521632319e+01
458 1 1.53329022260385948e+01
459 1 1.46266229228063374e+01
460 1 1.73700979357304917e+01
461 1 1.43661588671608733e+01
462 1 1.37146394747557636e+01
463 1 1.94535857710724969e+01
464 1 1.95259717388488809e+01
465 1 1.98251771869815308e+01
466 1 1.75762060754766338e+01
467 1 1.85380248104636642e+01
468 1 1.87882852718605697e+01
469 1 1.75757559952610691e+01
470 1 1.78323344498458169e+01
471 1 1.85038076065858839e+01
472 1 1.89753545241486741e+01
473 1 1.89929738704747741e+01
474 1 1.86384982793832101e+01
475 1 1.71523057660196478e+01
476 1 1.86129838593919352e+01
477 1 1.86506332121017344e+01
478 1 1.72982865743950214e+01
479 1 1.71944591447426447e+01
480 1 1.72074667460860056e+01
481 1 1.40910417214778718e+01
482 1 1.54732861604118188e+01
483 1 1.65162595181203109e+01
484 1 7.60069152949647098e+00
485 1 7.98763082673662961e+00
486 1 9.01595635593726463e+00
487 1 1.38274228856769881e+01
488 1 1.09516267921343360e+01
489 1 1.09684462551844302e+01
490 1 9.69500085640982689e+00
491 1 9.67887425362012976e+00
492 1 8.89268071972522911e+00
493 1 1.03967927440252588e+01
494 1 9.77532157782852451e+00
495 1 1.15283815198993604e+01
496 1 8.90868633979373747e+00
497 1 1.41158354312672092e+01
498 1 1.58498817731743404e+01
499 1 2.07721949783196429e+01
500 1 2.17989477846802693e+01
501 1 2.06289090478907688e+01
502 1 2.04513341913037188e+01
503 1 2.00918727815022606e+01
504 1 2.00538514066175466e+01
505 1 2.13028341005355024e+01
506 1 2.07866748809414794e+01
507 1 2.09006418668412302e+01
508 1 2.64339231930108376e+01
509 1 2.30822640623034587e+01
510 1 2.18900745680110802e+01
511 1 2.14027450616676838e+01
512 1 2.05194838000106756e+01
513 1 2.00423379721928008e+01
514 1 2.03469676900257319e+01
515 1 2.01069289461196163e+01
516 1 1.91207034992678935e+01
517 1 1.38332820852614713e+01
518 1 2.35679728228444922e+01
519 1 1.51060396800988865e+01
520 1 1.44107790935685447e+01
521 1 1.76225436165258209e+01
522 1 1.12627615568612995e+01
523 1 5.10697520800622051e+00
524 1 4.73431721366505798e+00
525 1 5.14979822140074184e+00
526 1 5.52487886487553137e+00
527 1 6.05739310124514141e+00
528 1 5.84751694238994535e+00
529 1 1.85298393681945193e+01
530 1 1.90034792988509693e+01
531 1 2.01567571582474550e+01
532 1 1.93707682645216259e+01
533 1 1.97391190016347764e+01
534 1 2.38960718166737713e+01
535 1 2.06407287410844837e+01
536 1 2.13222214515379562e+01
537 1 2.17307467282906224e+01
538 1 2.35937177803817200e+01
539 1 2.95191979322815747e+01
540 1 2.89319141565959868e+01
541 1 2.96547776352761048e+01
542 1 2.77460685140327925e+01
543 1 2.06297205472244407e+01
544 1 2.17772293950608749e+01
545 1 1.90577654230608040e+01
546 1 2.56289027866558925e+01
547 1 3.03216504361568546e+01
548 1 3.15559190122668696e+01
549 1 3.17139520101901482e+01
550 1 3.30359195630067859e+01
551 1 3.24074991181050365e+01
552 1 3.19699209150783439e+01
553 1 2.96053679581177498e+01
554 1 3.05269191851539574e+01
555 1 2.92108451698041982e+01
556 1 2.70773295769459281e+01
557 1 2.77425103772658090e+01
558 1 4.37374476609206297e+01
559 1 4.74877168731885675e+01
560 1 5.23638587851778823e+01
561 1 3.16971177908032864e+01
562 1 2.65492665453787779e+01
563 1 2.61314104599073822e+01
564 1 2.92090252620230650e+01
565 1 2.81240138417189982e+01
566 1 1.12181894285894490e+01
567 1 1.23407075506563206e+01
568 1 3.51453288434793976e+01
569 1 2.34053858235568448e+01
570 1 2.55527593219581313e+01
571 1 3.01603101129700732e+01
572 1 3.20955829658983092e+01
573 1 8.20212758211358661e+00
574 1 8.78174438320949236e+00
575 1 1.54351348463748774e+01
576 1 1.05804808875005349e+01
577 1 1.00059825314337427e+01
578 1 1.38624663844427811e+01
579 1 9.19538765974227879e+00
580 1 9.31493138415606303e+00
581 1 9.00149982189197395e+00
582 1 8.85799291164048697e+00
583 1 6.54223214661645969e+00
584 1 3.09580588168796034e+01
585 1 3.04455613326114189e+01
586 1 3.44743830260355324e+01
587 1 3.44917849770430678e+01
588 1 2.26105607741451458e+01
589 1 2.52310402371109532e+01
590 1 2.69643912850171041e+01
591 1 2.25182418976650212e+01
592 1 2.61067905325318037e+01
593 1 2.81709986252497586e+01
594 1 2.74341152660720553e+01
595 1 2.62132001904173713e+01
596 1 2.78257877786966183e+01
597 1 2.60289663968189444e+01
598 1 2.64942094364151117e+01
599 1 2.45961218848319092e+01
600 1 2.72120544636736490e+01
601 1 2.74378377044376158e+01
602 1 2.59136473933021314e+01
603 1 2.80844178000121154e+01
604 1 2.70880810099331519e+01
605 1 2.26174523194651620e+01
606 1 2.48702522664018701e+01
607 1 2.66028106192035203e+01
608 1 2.53986220433047407e+01
609 1 2.41021916423238594e+01
610 1 2.25859557014917485e+01
611 1 2.40811459533546603e+01
612 1 2.18872008261896092e+01
613 1 2.28086375940873509e+01
614 1 2.38844714536159621e+01
615 1 2.56281438791611613e+01
616 1 2.63498087235914369e+01
617 1 1.97607843008098314e+01
618 1 2.10430643075814601e+01
619 1 1.99442773016023480e+01
620 1 2.01855926016234619e+01
621 1 2.14440168206032205e+01
622 1 1.85775534280404955e+01
623 1 1.82447531644829191e+01
624 1 1.79941612716730788e+01
625 1 1.92128362239977406e+01
626 1 1.91640798135385140e+01
627 1 1.87959953231954771e+01
628 1 1.85616067470090478e+01
629 1 1.91593019957058921e+01
630 1 2.01474811189897061e+01
631 1 1.95038860053176393e+01
632 1 2.05259442221626820e+01
633 1 2.13441210972682285e+01
634 1 2.20546868097220958e+01
635 1 2.38979409044511044e+01
636 1 2.21117784865418869e+01
637 1 2.32383284599007638e+01
638 1 1.90956242076649652e+01
639 1 1.90023412223596999e+01
640 1 1.86971932273991506e+01
641 1 1.88611137802450273e+01
642 1 1.88314195102008348e+01
643 1 1.82651588732345154e+01
644 1 1.82639757073409292e+01
645 1 1.81178956607585278e+01
646 1 1.81959188611767715e+01
647 1 1.84517084158657880e+01
648 1 1.86610139965425574e+01
649 1 1.87148718081745535e+01
650 1 1.95009933125970640e+01
651 1 1.91164632206809380e+01
652 1 1.83285843272960349e+01
653 1 1.82165934015157767e+01
654 1 2.10228117076295646e+01
655 1 2.13815152000874988e+01
656 1 2.22091435887005879e+01
657 1 2.01464087123778306e+01
658 1 2.04360944765120536e+01
659 1 1.97988447813023214e+01
660 1 2.06757524579068317e+01
661 1 2.02172455190459779e+01
662 1 2.83417226260893678e+01
663 1 3.24453206855063527e+01
664 1 3.03730213624317429e+01
665 1 3.02250220151634679e+01
666 1 2.81577249542639052e+01
667 1 2.98725641195105389e+01
668 1 2.97017916302898399e+01
669 1 2.78637314077819482e+01
670 1 2.74868109798022644e+01
671 1 2.82261378185122567e+01
672 1 2.99753148387004096e+01
673 1 2.96634079355798619e+01
674 1 3.24548493617879572e+01
675 1 3.19678575349844039e+01
676 1 3.11982500170727306e+01
677 1 2.99333581506334454e+01
678 1 2.89172791798232005e+01
679 1 2.70575326577259894e+01
680 1 2.69804602743818123e+01
681 1 2.66258175814258493e+01
682 1 3.13464073497613249e+01
683 1 2.90156654116046617e+01
684 1 2.71616430576308119e+01
685 1 1.35792360177007936e+01
686 1 1.35027231844421625e+01
687 1 1.34878947383955676e+01
688 1 4.99325496759393062e+00
689 1 6.01888036569419782e+00
690 1 6.54315736518271329e+00
691 1 4.79965286810201075e+00
692 1 5.42599779155036632e+00
693 1 5.73388688030388227e+00
694 1 8.35073241518289500e+00
695 1 7.88468162736944489e+00
696 1 6.85101112219256514e+00
697 1 1.65034944990481769e+01
698 1 1.34352559661810460e+01
699 1 1.32793751791815957e+01
700 1 1.95095066637258974e+01
701 1 1.66715867746156903e+01
702 1 1.26555443842844060e+01
703 1 1.53412636874033481e+01
704 1 1.68138731851857770e+01
705 1 3.58091294931011532e+01
706 1 2.64216806612288266e+01
707 1 2.02471580569891429e+01
708 1 2.37492240017525873e+01
709 1 2.35328032953366453e+01
710 1 1.81770684335232708e+01
711 1 2.91706836796582145e+01
712 1 3.36362763384097860e+01
713 1 3.28736564715542698e+01
714 1 4.18924103692778260e+01
715 1 3.92592778017876611e+01
716 1 2.24950240637715204e+01
717 1 3.40693916184084742e+01
718 1 2.92880981090933972e+01
719 1 2.88563926541371352e+01
720 1 2.21206465441673323e+01
721 1 4.23158653367149995e+01
722 1 3.55423080101581306e+01
723 1 3.80880106148583479e+01
724 1 3.21781055083900469e+01
725 1 4.51097717702357599e+01
726 1 4.31768794113911056e+01
727 1 4.12589038010920461e+01
728 1 3.78352787443910685e+01
729 1 3.19849637665273967e+01
730 1 2.07822809929280190e+01
731 1 2.63535482140186836e+01
732 1 3.00389549012066048e+01
733 1 2.98763011248420653e+01
734 1 2.49508435631837600e+01
735 1 2.10789948550457780e+01
736 1 1.57124934040452988e+01
737 1 1.42232598612966576e+01
738 1 3.93355763473090363e+01
739 1 3.97340377445548398e+01
740 1 1.93940826881588002e+01
741 1 1.94077283969061796e+01
742 1 1.16579040433729748e+01
743 1 1.00456157760500826e+01
744 1 1.41545978905945304e+01
745 1 1.43250457821750441e+01
746 1 1.28896134236543016e+01
747 1 1.41722718767606644e+01
748 1 1.34770951321522592e+01
749 1 1.30434097061253365e+01
750 1 1.54731828733601446e+01
751 1 1.54236819318723519e+01
752 1 4.78048886520353289e+00
753 1 4.74396919559562580e+00
754 1 5.14998036403787918e+00
755 1 5.09203069632055527e+00
756 1 4.89764489528576075e+00
757 1 4.77379211574867135e+00
758 1 4.56059509312877598e+00
759 1 4.34961123958221751e+00
760 1 4.32833033365846198e+00
761 1 4.50106234915274417e+00
762 1 4.30302969211607156e+00
763 1 4.48011100704396981e+00
764 1 4.23254199075276372e+00
765 1 4.14686110191622781e+00
766 1 4.77929894494276031e+00
767 1 4.60835737191647521e+00
768 1 4.61867711475138698e+00
769 1 5.15210721466963317e+00
770 1 1.80304712278740418e+01
771 1 1.78694293307099521e+01
772 1 1.78965055744226724e+01
773 1 1.81315106912333732e+01
774 1 1.81166620904832705e+01
775 1 1.42651144228236060e+01
776 1 4.17524090717923073e+01
777 1 4.19400867152880892e+01
778 1 4.11834763780975521e+01
779 1 4.13903247013716680e+01
780 1 1.80623297158110923e+01
781 1 1.46632123834819161e+01
782 1 1.29258037759827449e+01
783 1 4.43523837964944256e+00
784 1 5.02393231100726378e+00
785 1 4.97158705199557005e+00
786 1 5.24168805561045037e+00
787 1 5.59076256571766095e+00
788 1 1.33279551969145871e+01
789 1 2.78776997280645631e+01
790 1 2.74723729825503291e+01
791 1 2.69455719639352331e+01
792 1 3.16519754368887014e+01
793 1 2.22887017004188301e+01
794 1 1.74826203502362958e+01
795 1 1.46556447420692386e+01
796 1 1.37384613331200374e+01
797 1 1.52389859736793785e+01
798 1 1.56058434876375127e+01
799 1 1.72113416578205083e+01
800 1 1.50177827961559966e+01
801 1 1.40451506622721070e+01
802 1 1.33026975280050621e+01
803 1 1.80067399366060954e+01
804 1 1.70958344551401566e+01
805 1 1.94152571010381187e+01
806 1 2.19161726846846712e+01
807 1 1.93446824262845603e+01
808 1 1.76635812517932891e+01
809 1 1.34908389376481246e+01
810 1 1.76324713733490057e+01
811 1 1.53890485747034553e+01
812 1 2.01973911210980290e+01
813 1 1.64886667070417765e+01
814 1 3.98344833137034584e+01
815 1 1.79219848029047100e+01
816 1 1.80199005402174031e+01
817 1 4.96517014967182568e+00
818 1 4.14183661317299467e+00
819 1 4.25293339046790919e+00
820 1 1.58352250366714422e+01
821 1 1.57827041198184848e+01
822 1 1.31868283745800969e+01
823 1 1.08436268200661097e+01
824 1 1.16890512852451849e+01
825 1 1.28011650335167779e+01
826 1 1.19852626862859495e+01
827 1 1.35169427950553445e+01
828 1 1.34695298282553590e+01
829 1 1.55135204130561224e+01
830 1 1.18713911397218563e+01
831 1 1.06012977222128324e+01
832 1 1.07989451921339583e+01
833 1 1.23806824104041056e+01
834 1 1.22456301627474851e+01
835 1 1.16851103894742803e+01
836 1 1.14261282703436340e+01
837 1 9.55706664298163133e+00
838 1 9.34827486283210973e+00
839 1 1.51657142932178264e+01
840 1 1.60196052171967338e+01
841 1 1.51242891525236463e+01
842 1 1.27072341938234192e+01
843 1 1.42820263325060157e+01
844 1 1.44524674662449559e+01
845 1 1.72040272860296071e+01
846 1 1.75552877912258651e+01
847 1 1.66992344419380530e+01
848 1 1.46848048708035801e+01
849 1 1.47718787781441083e+01
850 1 1.19480391893789299e+01
851 1 1.39954082171411773e+01
852 1 1.25443275243049808e+01
853 1 1.14150181203837917e+01
854 1 1.02720283230387661e+01
855 1 1.10406504947324571e+01
856 1 1.56521460211943726e+01
857 1 1.38372877864578321e+01
858 1 1.29419297903886736e+01
859 1 1.18093332755395242e+01
860 1 9.40601234551204790e+00
861 1 1.65831546791671656e+01
862 1 2.44492796959495990e+01
863 1 2.45111237385534153e+01
864 1 2.04944202561236466e+01
865 1 1.91115459694677874e+01
866 1 1.62738418049934275e+01
867 1 1.81337718900082052e+01
868 1 1.99862215930815594e+01
869 1 1.51383828790584012e+01
870 1 1.15602278155648239e+01
871 1 1.32484367055245791e+01
872 1 1.25548955974469809e+01
873 1 1.11220695738222055e+01
874 1 1.05972771845181697e+01
875 1 9.94939856095058595e+00
876 1 1.02048808759730658e+01
877 1 1.23983489355238987e+01
878 1 2.34161293794938352e+01
879 1 3.42494532353976169e+01
880 1 2.86727683122556556e+01
881 1 3.36351217941240677e+01
882 1 2.99485674335553824e+01
883 1 2.54408268674011389e+01
884 1 3.60384137782110443e+01
885 1 4.34305664065426242e+01
886 1 4.20605589054406366e+01
887 1 5.19540061708898975e+01
888 1 4.36087303276955325e+01
889 1 3.87631286428634567e+01
890 1 3.92328611851718847e+01
891 1 4.17713935993366547e+01
892 1 4.82264559264820960e+01
893 1 4.44071289205050519e+01
894 1 4.97342505158982888e+01
895 1 4.64277270452624364e+01
896 1 5.06889389349340291e+01
897 1 5.54723715905052543e+01
898 1 5.47301067706977449e+01
899 1 4.51399796864110670e+01
900 1 3.87426677688505521e+01
901 1 4.13068519871209716e+01
902 1 3.83339521754837094e+01
903 1 3.93185860846245347e+01
904 1 4.06715182175767609e+01
905 1 3.75687980232643852e+01
906 1 3.88343738467884521e+01
907 1 4.30608624269035900e+01
908 1 4.26339792658792049e+01
909 1 4.71264861645060549e+01
910 1 4.65516327983207034e+01
911 1 4.76715361064472845e+01
912 1 5.05666973628115102e+01
913 1 4.74412171145013488e+01
914 1 4.94935790262160040e+01
915 1 4.94303967747581936e+01
916 1 3.80441265299636555e+01
917 1 3.82162375474513496e+01
918 1 3.96827010578565762e+01
919 1 3.86126711437740369e+01
920 1 3.84102961889282852e+01
921 1 4.01759253233140257e+01
922 1 4.32129992903200488e+01
923 1 3.82145518008837755e+01
924 1 3.93803841874993310e+01
925 1 3.68165206945204773e+01
926 1 3.86884115469609995e+01
927 1 3.80354334032185832e+01
928 1 3.93780495782328259e+01
929 1 3.42996613207660346e+01
930 1 2.84942950577803558e+01
931 1 2.99645837339147434e+01
932 1 2.71146482014098638e+01
933 1 2.30568756475419612e+01
934 1 3.94253114567768606e+01
935 1 4.58484197064799304e+01
936 1 4.62695459665713074e+01
937 1 3.97723002680220716e+01
938 1 4.31460855852677980e+01
939 1 4.03220668617314146e+01
940 1 4.12097320644273708e+01
941 1 4.39666635361749272e+01
942 1 4.20688316842849801e+01
943 1 4.24559941435333172e+01
944 1 4.54108325594703075e+01
945 1 4.07932984178520925e+01
946 1 4.41249365613010411e+01
947 1 4.44525158289509505e+01
948 1 4.97953009505601187e+01
949 1 4.69131279514424193e+01
950 1 4.78932047128102170e+01
951 1 4.66536897742333991e+01
952 1 5.06113418819865188e+01
953 1 5.29889185652992722e+01
954 1 4.41753384740100543e+01
955 1 4.25838272992951943e+01
956 1 3.01432458551573994e+01
957 1 3.64508948194875870e+01
958 1 3.78811687300977908e+01
959 1 4.00004074321829108e+01
960 1 3.98437635917105979e+01
961 1 4.19116407348158759e+01
962 1 4.00078065646805712e+01
963 1 3.75056848787060630e+01
964 1 4.49587957817301529e+01
965 1 4.07794836533136333e+01
966 1 4.35120170427281678e+01
967 1 4.81581774584209299e+01
968 1 5.12455636908486198e+01
969 1 5.29844659853813269e+01
970 1 3.60869659834580929e+01
971 1 3.90364269823597638e+01
972 1 3.88463163827776015e+01
973 1 3.29032324454633169e+01
974 1 3.53581330170022952e+01
975 1 3.41049124466428708e+01
976 1 3.62767637796543809e+01
977 1 3.87500859125173065e+01
978 1 3.81465385800946208e+01
979 1 3.71536312727900224e+01
980 1 4.58940980172527091e+01
981 1 4.07491600772094031e+01
982 1 4.31309858763688112e+01
983 1 3.79845992008225650e+01
984 1 3.64172586847885214e+01
985 1 3.49650171737492812e+01
986 1 3.63596648497882597e+01
987 1 2.99862430215041300e+01
988 1 3.24455454307774573e+01
989 1 3.43076846850041690e+01
990 1 2.85532543665275895e+01
991 1 3.08871842967346915e+01
992 1 3.04253127026077550e+01
993 1 2.61461075961116087e+01
994 1 3.17623160531013831e+01
995 1 3.17523469692318052e+01
996 1 3.02672979248444065e+01
997 1 3.10125536643763304e+01
998 1 3.01555518500645583e+01
999 1 2.57350127031068041e+01
1000 1 2.78797373439337299e+01
1001 1 2.25469676896629778e+01
1002 1 2.48946653008257108e+01
1003 1 1.97961541233254152e+01
1004 1 3.01509446613391638e+01
1005 1 3.08366123763493114e+01
1006 1 3.24103397308252710e+01
1007 1 3.21282565734713046e+01
1008 1 3.30833569626854000e+01
1009 1 3.28675376492791145e+01
1010 1 3.46712919091887457e+01
1011 1 3.42594512693552105e+01
1012 1 3.25275360984150694e+01
1013 1 3.09892344739090397e+01
1014 1 3.19021015191234589e+01
1015 1 3.25541801441880168e+01
1016 1 3.23171735941637834e+01
1017 1 3.20993413064611914e+01
1018 1 3.17053640010691566e+01
1019 1 3.14042699020532616e+01
1020 1 3.16322548574060285e+01
1021 1 3.11129207913252479e+01
1022 1 3.19865529453567987e+01
1023 1 3.17588992352661492e+01
1024 1 3.16549028111197899e+01
1025 1 3.22657214487740234e+01
1026 1 3.24694994815743456e+01
1027 1 3.24313603189887800e+01
1028 1 3.37537193678283387e+01
1029 1 3.32722494848335160e+01
1030 1 3.25084954659565142e+01
1031 1 3.22717495579945890e+01
1032 1 3.13958040624596322e+01
1033 1 3.54701893619660709e+01
1034 1 3.27942303179310244e+01
1035 1 3.20571875842177292e+01
1036 1 3.17183203442938897e+01
1037 1 3.45054722887565219e+01
1038 1 3.38514744513652275e+01
1039 1 3.59297151589585724e+01
1040 1 3.48264656663637169e+01
1041 1 3.60578597670135537e+01
1042 1 3.75691339429535347e+01
1043 1 3.24815418834225866e+01
1044 1 3.18281099843989068e+01
1045 1 3.22519761859179539e+01
1046 1 3.23941422122043363e+01
1047 1 3.22946632881522504e+01
1048 1 3.10390491991519681e+01
1049 1 3.20557869353222458e+01
1050 1 3.22964314929031673e+01
1051 1 3.14977860713209239e+01
1052 1 3.07595555427518619e+01
1053 1 2.22887446397206581e+01
1054 1 2.24389636686725851e+01
1055 1 2.68117928849098881e+01
1056 1 2.81063892987816821e+01
1057 1 1.02613699200782857e+01
1058 1 1.41028937361970215e+01
1059 1 1.73016224829310410e+01
1060 1 2.07649101812910573e+01
1061 1 1.73776222254009269e+01
1062 1 1.74831158137303682e+01
1063 1 1.57886539243494841e+01
1064 1 1.84118615551719778e+01
1065 1 1.86040900930916351e+01
1066 1 2.52000037449274217e+01
1067 1 2.14355977540782305e+01
1068 1 1.56894210519921717e+01
1069 1 1.24466553827215005e+01
1070 1 1.33665124994633349e+01
1071 1 1.18899554600927893e+01
1072 1 1.37849970091320042e+01
1073 1 1.55953184117094761e+01
1074 1 1.10512008551658898e+01
1075 1 1.13351377128008384e+01
1076 1 1.46720180845155195e+01
1077 1 1.26959656664226319e+01
1078 1 1.58325907709203477e+01
1079 1 1.31658053258898793e+01
1080 1 1.45256743401380088e+01
1081 1 1.75819096661430621e+01
1082 1 1.93606284936237039e+01
1083 1 1.86851134524423621e+01
1084 1 1.07241706975198827e+01
1085 1 1.25034140612527338e+01
1086 1 1.36739316452406126e+01
1087 1 1.27245671620295635e+01
1088 1 1.11220835090769743e+01
1089 1 6.64791910253849316e+00
1090 1 8.61029359356698443e+00
1091 1 9.64817545385441555e+00
1092 1 7.81496777341267190e+00
1093 1 1.46369700793689450e+01
1094 1 1.86147984140850475e+01
1095 1 1.95283184786575674e+01
1096 1 2.25693100456667146e+01
1097 1 2.04971467285121811e+01
1098 1 1.80718328313309264e+01
1099 1 2.25643807606193185e+01
1100 1 2.66145443322016533e+01
1101 1 2.50054238348880880e+01
1102 1 3.07866488636047322e+01
1103 1 2.71197845643026589e+01
1104 1 2.87508800529118886e+01
1105 1 3.01626823638762005e+01
1106 1 3.34669299263935400e+01
1107 1 3.32804699654796821e+01
1108 1 3.09315804910178720e+01
1109 1 3.59401454374723670e+01
1110 1 2.90197597225237587e+01
1111 1 2.42186552448123997e+01
1112 1 2.48774099635778114e+01
1113 1 2.70756178616644831e+01
1114 1 2.12383120444352613e+01
1115 1 2.17245755290142135e+01
1116 1 2.37871387125167963e+01
1117 1 2.34207132203235773e+01
1118 1 2.65034730175967503e+01
1119 1 2.51018433968362409e+01
1120 1 2.81153984887206114e+01
1121 1 2.15378342731345107e+01
1122 1 2.06997800568041939e+01
1123 1 2.15586817127521755e+01
1124 1 2.02872735084658871e+01
1125 1 1.96736356862723376e+01
1126 1 2.08306220462757139e+01
1127 1 2.40231649938106386e+01
1128 1 2.23104357058742622e+01
1129 1 2.24679039412058685e+01
1130 1 2.17866091997626548e+01
1131 1 2.30887716560608780e+01
1132 1 2.91162802896169168e+01
1133 1 2.57442776725448432e+01
1134 1 2.49278273149747207e+01
1135 1 2.13091413079624417e+01
1136 1 2.18091806262213552e+01
1137 1 2.11130053869800030e+01
1138 1 2.35516474285055857e+01
1139 1 2.21569792256043137e+01
1140 1 2.40107842738367268e+01
1141 1 2.34310154066694700e+01
1142 1 2.44342013343016724e+01
1143 1 2.91136199832270179e+01
1144 1 2.70018651110526520e+01
1145 1 2.70606397066445439e+01
1146 1 2.76448333894718665e+01
1147 1 2.59068372502309039e+01
1148 1 2.93830846268480919e+01
1149 1 3.29542642937935923e+01
1150 1 3.11536531959328009e+01
1151 1 3.31772358755549774e+01
1152 1 3.11686098103278084e+01
1153 1 3.41337788255809471e+01
1154 1 3.30850398972814972e+01
1155 1 3.52597660065787366e+01
1156 1 3.15964296078052378e+01
1157 1 3.18210656515022983e+01
1158 1 3.02154725767427905e+01
1159 1 3.00358064164758893e+01
1160 1 2.78205156255891985e+01
1161 1 2.85694812598618277e+01
1162 1 3.45605764062743930e+01
1163 1 3.18265300377233409e+01
1164 1 3.15899638282678836e+01
1165 1 3.38054676688906994e+01
1166 1 3.32991882314763785e+01
1167 1 3.26463907289002790e+01
1168 1 3.29229139008375711e+01
1169 1 3.04706670326863502e+01
1170 1 2.69613952652795810e+01
1171 1 3.59438458686497739e+01
1172 1 3.47347994305241272e+01
1173 1 3.69383945181169011e+01
1174 1 3.73670438447347237e+01
1175 1 3.10934496900943742e+01
1176 1 3.37263540860586843e+01
1177 1 2.93574041412209894e+01
1178 1 3.07661254242583091e+01
1179 1 2.47670015008122490e+01
1180 1 1.88112126571991283e+01
1181 1 2.61623902830361530e+01
1182 1 1.92548488441798717e+01
1183 1 1.73634680415586189e+01
1184 1 2.15155744814013978e+01
1185 1 2.26106273422503570e+01
1186 1 8.00951085763549209e+00
1187 1 9.49894254708126162e+00
1188 1 9.40581889458556475e+00
1189 1 1.30788525036717367e+01
1190 1 1.15654656778074170e+01
1191 1 2.34734004055285972e+01
1192 1 2.11942558534125816e+01
1193 1 2.42261226386056379e+01
1194 1 2.72507308634700323e+01
1195 1 2.98200871774472738e+01
1196 1 2.91480600878565994e+01
1197 1 3.27587996160820509e+01
1198 1 2.66503234927862174e+01
1199 1 2.74883785192189762e+01
1200 1 2.43229024573455419e+01
1201 1 3.06491247494351775e+01
1202 1 2.79012993536676639e+01
1203 1 3.31780712590879148e+01
1204 1 3.21975779001142683e+01
1205 1 3.50096682021483190e+01
1206 1 3.19829822437933728e+01
1207 1 2.13548689174194308e+01
1208 1 2.01709523675149249e+01
1209 1 2.33726700912856842e+01
1210 1 2.57270264754843332e+01
1211 1 1.11487276594382401e+01
1212 1 1.43463331559859810e+01
1213 1 1.66463325421303097e+01
1214 1 1.67590151379372223e+01
1215 1 1.33635924904473988e+01
1216 1 1.86988321470803420e+01
1217 1 1.66652140993574278e+01
1218 1 1.50217378921878453e+01
1219 1 1.93403154930923797e+01
1220 1 2.43500142040078771e+01
1221 1 2.70814117426367496e+01
1222 1 2.75832703229386667e+01
1223 1 2.34631280054202271e+01
1224 1 2.05891277629928737e+01
1225 1 1.97009571920426509e+01
1226 1 2.65537434793384506e+01
1227 1 2.40235120135023337e+01
1228 1 2.91736207436225286e+01
1229 1 1.68677784543660714e+01
1230 1 2.89861464387954157e+01
1231 1 3.39438521355148737e+01
1232 1 3.17566966752816882e+01
1233 1 3.26104848900787658e+01
1234 1 3.28475841884924975e+01
1235 1 3.30302868227450119e+01
1236 1 3.20098237529350769e+01
1237 1 3.07951181155594718e+01
1238 1 3.22238551770357375e+01
1239 1 3.17789761835693021e+01
1240 1 3.20149917236086949e+01
1241 1 3.29907081338140387e+01
1242 1 3.20988380622331704e+01
1243 1 3.09045553854432775e+01
1244 1 3.10679225909345682e+01
1245 1 2.72732648198507199e+01
1246 1 2.74756472727377137e+01
1247 1 2.81983210870472369e+01
1248 1 2.64511939536333394e+01
1249 1 2.68549058323627037e+01
1250 1 2.74834013102599890e+01
1251 1 2.98122602336152482e+01
1252 1 3.16710021446005108e+01
1253 1 3.22096402462573650e+01
1254 1 3.22323343819547716e+01
1255 1 3.67511599592178371e+01
1256 1 3.22872725799695317e+01
1257 1 2.98397689634164074e+01
1258 1 2.97353248745862260e+01
1259 1 3.05648888597214423e+01
1260 1 2.82918223540041573e+01
1261 1 3.18104021633429248e+01
1262 1 3.10159693666583856e+01
1263 1 3.14047263984041898e+01
1264 1 3.26756629547811670e+01
1265 1 3.20958509891047044e+01
1266 1 3.11173737331766063e+01
1267 1 3.21001138237327339e+01
1268 1 3.39748404268616042e+01
1269 1 3.28477487044532950e+01
1270 1 3.16970177744548316e+01
1271 1 3.19750166610030284e+01
1272 1 3.11546711998062342e+01
1273 1 3.28003397966336294e+01
1274 1 3.23209326034473250e+01
1275 1 3.06897849979153428e+01
1276 1 3.03738899201747863e+01
1277 1 2.90133608044646287e+01
1278 1 2.93629736438502107e+01
1279 1 3.08146470524704554e+01
1280 1 3.16529624590965568e+01
1281 1 3.19742160125370489e+01
1282 1 3.16774149331601969e+01
1283 1 3.14040760991123058e+01
1284 1 3.15784988904939397e+01
1285 1 3.21949276456630002e+01
1286 1 3.11678643302511524e+01
1287 1 3.00524293298712664e+01
1288 1 2.78402110915893850e+01
1289 1 3.02743111652092765e+01
1290 1 3.19165257018467372e+01
1291 1 3.13198623200711452e+01
1292 1 3.01499659640296933e+01
1293 1 2.94063322510671057e+01
1294 1 3.28337515404045135e+01
1295 1 3.23674742724365885e+01
1296 1 2.77379828248518976e+01
1297 1 2.87246585376016732e+01
1298 1 2.86599439111455467e+01
1299 1 2.93209069929396833e+01
1300 1 2.68024787829721873e+01
1301 1 2.34397814037972552e+01
1302 1 2.69830954946254060e+01
1303 1 2.25738643331862185e+01
1304 1 2.12484037714202429e+01
1305 1 2.38337883486136057e+01
1306 1 2.54314250799836934e+01
1307 1 2.50921086380358567e+01
1308 1 2.40050059567924130e+01
1309 1 2.60952197925124096e+01
1310 1 2.37194558872191656e+01
1311 1 2.17775591359960998e+01
1312 1 2.11816906998396846e+01
1313 1 2.36305330917254643e+01
1314 1 2.21107361867780376e+01
1315 1 2.23103720671273535e+01
1316 1 2.51601137821027194e+01
1317 1 2.37904306519288227e+01
1318 1 2.37090660672419951e+01
1319 1 2.36910556567540134e+01
1320 1 2.32855936056213793e+01
1321 1 2.19898704229806405e+01
1322 1 2.44057033409928827e+01
1323 1 2.08885833980589730e+01
1324 1 2.18643200295068745e+01
1325 1 1.99330626453796711e+01
1326 1 1.98262634690011623e+01
1327 1 2.05083486512909232e+01
1328 1 1.93288445477322597e+01
1329 1 1.98988862749083566e+01
1330 1 1.98569090115872235e+01
1331 1 1.92959147027462485e+01
1332 1 1.95601702190961184e+01
1333 1 2.05298134803121783e+01
1334 1 2.10805305028354510e+01
1335 1 1.94350927375332958e+01
1336 1 1.91368068336582198e+01
1337 1 2.25017879612681320e+01
1338 1 2.12135073511011107e+01
1339 1 2.42933225834515270e+01
1340 1 2.41191141370369309e+01
1341 1 2.27938233726768331e+01
1342 1 2.59820379560787806e+01
1343 1 2.54885316970948921e+01
1344 1 2.63244348627155631e+01
1345 1 2.24868165374063409e+01
1346 1 2.43891031099380626e+01
1347 1 2.63266726352303024e+01
1348 1 2.53609911892187121e+01
1349 1 2.56498497076606604e+01
1350 1 2.58629364825481431e+01
1351 1 3.12553436269076599e+01
1352 1 2.87009542492359273e+01
1353 1 2.75786139899273444e+01
1354 1 3.00001213055856475e+01
1355 1 3.04186410373557266e+01
1356 1 3.39060223772317002e+01
1357 1 3.27156636760209025e+01
1358 1 3.60218230447516206e+01
1359 1 2.88452595439945441e+01
1360 1 2.93628466092682139e+01
1361 1 3.57772196262480975e+01
1362 1 3.39852859333753159e+01
1363 1 3.44631134317719727e+01
1364 1 3.31602661708888391e+01
1365 1 3.30728178103420092e+01
1366 1 3.51948946711730883e+01
1367 1 2.99383358465910341e+01
1368 1 3.41447083822304052e+01
1369 1 3.56197383473846472e+01
1370 1 3.35559950416033246e+01
1371 1 3.60508468653529306e+01
1372 1 3.60423507792058189e+01
1373 1 2.76451423306534600e+01
1374 1 3.17029423429025172e+01
1375 1 2.81362018556003761e+01
1376 1 3.09120387001986430e+01
1377 1 3.19926563536300037e+01
1378 1 3.44965371777177836e+01
1379 1 3.09147266443520223e+01
1380 1 3.13782786262159519e+01
1381 1 3.39174918199718007e+01
1382 1 2.56394525778368383e+01
1383 1 2.67336955739889142e+01
1384 1 2.54971292576040618e+01
1385 1 2.68408380921920227e+01
1386 1 2.57703473729118251e+01
1387 1 2.54578773809337200e+01
1388 1 2.63081007023211662e+01
1389 1 3.09180859309081413e+01
1390 1 2.70519299207882078e+01
1391 1 2.74574194596217787e+01
1392 1 2.63269945240368308e+01
1393 1 2.62571490456534029e+01
1394 1 2.59195120768843523e+01
1395 1 2.64443472250052842e+01
1396 1 2.72349112847652144e+01
1397 1 2.60746727780282583e+01
1398 1 2.81125288577903056e+01
1399 1 2.65622318913366975e+01
1400 1 2.70752716222357677e+01
1401 1 2.73909145556658125e+01
1402 1 2.86600689197442584e+01
1403 1 2.86547768034271080e+01
1404 1 2.58118724482079145e+01
1405 1 2.63321424836768792e+01
1406 1 3.14614113361772176e+01
1407 1 2.88880368541815251e+01
1408 1 3.05022322529254311e+01
1409 1 3.14101297388443079e+01
1410 1 2.76618340167578722e+01
1411 1 2.96526352074437405e+01
1412 1 2.30294964339982791e+01
1413 1 3.06409993335039168e+01
1414 1 2.91120529443207019e+01
1415 1 3.00704328357622401e+01
1416 1 3.27260683586410224e+01
1417 1 3.34977520755238771e+01
1418 1 2.63809670738804520e+01
1419 1 3.39672822037432383e+01
1420 1 3.13983764949210311e+01
1421 1 2.82168759403586229e+01
1422 1 2.45112975131643296e+01
1423 1 2.74118838734198391e+01
1424 1 2.43875851291159087e+01
1425 1 1.95498031734238147e+01
1426 1 3.27987886183163511e+01
1427 1 3.01319880615732458e+01
1428 1 2.95154642261231253e+01
1429 1 3.11515265794730389e+01
1430 1 3.10172248303487237e+01
1431 1 3.16784866295481535e+01
1432 1 2.86739260052947991e+01
1433 1 3.44090553243868413e+01
1434 1 3.36112843227326792e+01
1435 1 2.81891406861091944e+01
1436 1 2.93306152582196553e+01
1437 1 3.02215460801614633e+01
1438 1 2.79452344043730321e+01
1439 1 2.78086260932769491e+01
1440 1 2.88605323876016193e+01
1441 1 2.83215756996617785e+01
1442 1 2.89088539957671813e+01
1443 1 2.94320614248294028e+01
1444 1 2.75106312125459596e+01
1445 1 2.76414388797449497e+01
1446 1 2.66905725255795829e+01
1447 1 2.66905826421687706e+01
1448 1 2.70968985498565083e+01
1449 1 2.66093036964503682e+01
1450 1 2.67610124061144035e+01
1451 1 2.69318918373181369e+01
1452 1 2.68344255509028073e+01
1453 1 2.69661961484350101e+01
1454 1 2.67247726747025141e+01
1455 1 2.68027819740119604e+01
1456 1 2.70720374071422185e+01
1457 1 2.72975130902358067e+01
1458 1 2.74308487897877029e+01
1459 1 2.78275222904234028e+01
1460 1 2.72496717412212206e+01
1461 1 2.70304143577895424e+01
1462 1 2.82834351525143468e+01
1463 1 2.87870576192769931e+01
1464 1 2.83006001530084674e+01
1465 1 2.68826910405972903e+01
1466 1 2.85204622509887997e+01
1467 1 2.69508710662710236e+01
1468 1 2.66911289085019341e+01
1469 1 2.74093322150164234e+01
1470 1 2.78920084520047595e+01
1471 1 2.62369754909182511e+01
1472 1 2.93159725083699385e+01
1473 1 2.86373219762631344e+01
1474 1 2.81160970862574224e+01
1475 1 3.00773915800244396e+01
1476 1 3.09827018705031776e+01
1477 1 2.85156604209767863e+01
1478 1 2.95101720548686153e+01
1479 1 2.90974858787694721e+01
1480 1 2.77361755085459301e+01
1481 1 2.76704989997365765e+01
1482 1 2.85855451583994729e+01
1483 1 2.84563143399242975e+01
1484 1 2.72725319973016518e+01
1485 1 2.99053445559654740e+01
1486 1 2.97693807358105822e+01
1487 1 3.15009524514808525e+01
1488 1 3.10410864629790879e+01
1489 1 2.88364311898707477e+01
1490 1 2.70550859550286660e+01
1491 1 2.69619005950387880e+01
1492 1 2.72055369170414494e+01
1493 1 2.72419545534492897e+01
1494 1 2.77679116077733426e+01
1495 1 2.91364623373881173e+01
1496 1 2.65178660279602028e+01
1497 1 2.62085154424491762e+01
1498 1 2.65367021151091294e+01
1499 1 2.83741657005168477e+01
1500 1 2.31061872263671759e+01
1501 1 2.42313965391814001e+01
1502 1 1.83818687927025728e+01
1503 1 2.84908813213864995e+01
1504 1 2.90521354543757866e+01
1505 1 2.85770432660334208e+01
1506 1 2.73449019050321880e+01
1507 1 2.88258222769716248e+01
1508 1 2.68474643673129520e+01
1509 1 3.16483393986434187e+01
1510 1 3.38996608523164653e+01
1511 1 3.03561566454147780e+01
1512 1 2.81432586856662645e+01
1513 1 3.05143672856888735e+01
1514 1 3.21958926030018446e+01
1515 1 3.95338005133744090e+01
1516 1 3.56782237737803314e+01
1517 1 3.40047126161737623e+01
1518 1 3.70590817148800937e+01
1519 1 3.99427987269233498e+01
1520 1 3.70849677880257005e+01
1521 1 3.79014842413905484e+01
1522 1 3.62307732592060177e+01
1523 1 3.93705478325357134e+01
1524 1 4.06533542482719881e+01
1525 1 3.24150407917364305e+01
1526 1 3.27607893010456976e+01
1527 1 3.39782700865034499e+01
1528 1 3.60007524985886889e+01
1529 1 3.38762503458560289e+01
1530 1 3.06288398670072510e+01
1531 1 3.08634237603391632e+01
1532 1 3.40789182745463393e+01
1533 1 3.71664188765633696e+01
1534 1 3.66608194207316345e+01
1535 1 3.59893533419944873e+01
1536 1 3.28001698619619759e+01
1537 1 3.47979305404118548e+01
1538 1 3.55162515102329621e+01
1539 1 3.22749811085537175e+01
1540 1 3.33307178077188340e+01
1541 1 3.29322147810601251e+01
1542 1 3.13299643645145878e+01
1543 1 3.27439880138661152e+01
1544 1 3.10746579497072055e+01
1545 1 3.14891011458686734e+01
1546 1 3.15273902405068753e+01
1547 1 3.11725031608718410e+01
1548 1 3.18899852220875175e+01
1549 1 3.20126463730767128e+01
1550 1 3.31898273084376996e+01
1551 1 3.14327938466958727e+01
1552 1 3.30061111448625226e+01
1553 1 3.30614676164121377e+01
1554 1 3.16402195211475572e+01
1555 1 3.18368168384788461e+01
1556 1 3.52808789437706167e+01
1557 1 3.55830678216261092e+01
1558 1 3.83170512129235021e+01
1559 1 4.51712539574016390e+01
1560 1 4.27946257440243301e+01
1561 1 4.73011534288522526e+01
1562 1 4.01952278387099895e+01
1563 1 4.03639230148605037e+01
1564 1 3.79439937692562097e+01
1565 1 4.19245116130738325e+01
1566 1 4.44805826782336311e+01
1567 1 3.67628675725770151e+01
1568 1 3.66884100467964060e+01
1569 1 3.87846047231707018e+01
1570 1 3.24721974146520864e+01
1571 1 3.54650154530674016e+01
1572 1 3.68694145689247321e+01
1573 1 3.55456414490416464e+01
1574 1 3.67924541775050571e+01
1575 1 3.33988901809938383e+01
1576 1 2.85372452087254267e+01
1577 1 3.09369132557359379e+01
1578 1 3.40808214704286598e+01
1579 1 3.83389148977147514e+01
1580 1 3.71962879327220435e+01
1581 1 3.90526555389699936e+01
1582 1 4.12443861817878812e+01
1583 1 4.12848905484925481e+01
1584 1 4.27911256236429693e+01
1585 1 3.93155098770240272e+01
1586 1 4.64383524056205346e+01
1587 1 4.28086444543836109e+01
1588 1 3.47858787379826211e+01
1589 1 4.17521212800251149e+01
1590 1 2.63347634389759016e+01
1591 1 2.44525617033401232e+01
1592 1 2.59169685381333643e+01
1593 1 2.92449062265443551e+01
1594 1 2.62441524739108303e+01
1595 1 2.30735169541823986e+01
1596 1 2.15153197247528070e+01
1597 1 2.32311139557358963e+01
1598 1 2.55838845131656178e+01
1599 1 2.95309083210050325e+01
1600 1 3.19317779930510319e+01
1601 1 2.87325538479369662e+01
1602 1 2.17152621506682451e+01
1603 1 2.51259440970791808e+01
1604 1 2.50594833947502238e+01
1605 1 2.36308664683047986e+01
1606 1 2.75877246942889229e+01
1607 1 1.95012729059225478e+01
1608 1 2.50424884600543400e+01
1609 1 2.57093952317655656e+01
1610 1 2.48067218785819783e+01
1611 1 2.33839755315407309e+01
1612 1 2.71220648696035695e+01
1613 1 1.82986404702407164e+01
1614 1 2.15826808920298170e+01
1615 1 2.64080513689865128e+01
1616 1 3.03136380818893088e+01
1617 1 2.31816174710455023e+01
1618 1 2.16092377291708573e+01
1619 1 1.90255448739114925e+01
1620 1 2.04372146231516894e+01
1621 1 2.22202136587611569e+01
1622 1 2.60932918212242804e+01
1623 1 2.39590731576577944e+01
1624 1 2.75353435621725460e+01
1625 1 2.87183214821436650e+01
1626 1 3.13077635750060637e+01
1627 1 2.88225292847514574e+01
1628 1 3.07599235143317955e+01
1629 1 2.90382967373227316e+01
1630 1 2.87846603645561920e+01
1631 1 2.64165263066446840e+01
1632 1 2.95798373804268415e+01
1633 1 3.01398717335122868e+01
1634 1 2.60390410355402047e+01
1635 1 1.54700116228587667e+01
1636 1 1.96747538925849454e+01
1637 1 2.10746107411297032e+01
1638 1 2.29652773511231807e+01
1639 1 2.33752241602072175e+01
1640 1 2.16519701822135282e+01
1641 1 2.35717264908760882e+01
1642 1 2.31894002542719768e+01
1643 1 2.14492378820667042e+01
1644 1 2.94536857380512380e+01
1645 1 2.64477861694956076e+01
1646 1 1.84054764998660119e+01
1647 1 2.19584895947891106e+01
1648 1 2.27365513370244905e+01
1649 1 2.49932964362055223e+01
1650 1 1.48624232416465638e+01
1651 1 1.88292621196818075e+01
1652 1 1.82523998369828497e+01
1653 1 1.63645624754988788e+01
1654 1 1.34659055344172600e+01
1655 1 1.35435307778909220e+01
1656 1 1.55341875962818605e+01
1657 1 5.47023870975564019e+00
1658 1 9.36357429887318027e+00
1659 1 1.10027957666809169e+01
1660 1 8.70204313727557022e+00
1661 1 1.08975613400350504e+01
1662 1 1.24843334198323213e+01
1663 1 1.17403089922372192e+01
1664 1 1.34923165023579621e+01
1665 1 1.35825068067434263e+01
1666 1 1.20966014812144476e+01
1667 1 1.26260794303207398e+01
1668 1 1.23420345245345455e+01
1669 1 1.25161834211321938e+01
1670 1 1.64048243042667892e+01
1671 1 1.54856042589200289e+01
1672 1 1.47932415338539300e+01
1673 1 1.43386071606636971e+01
1674 1 1.52253833535185592e+01
1675 1 1.34628392509603980e+01
1676 1 1.28683952378865332e+01
1677 1 1.31399086037150621e+01
1678 1 1.25135596461897762e+01
1679 1 1.09018313723491289e+01
1680 1 1.11606925280154350e+01
1681 1 1.09449586688255884e+01
1682 1 1.42092433713268225e+01
1683 1 1.50835123379224960e+01
1684 1 1.68806922331445541e+01
1685 1 1.64822368886092150e+01
1686 1 1.84618102224926126e+01
1687 1 1.87247823689839912e+01
1688 1 2.09507862499522801e+01
1689 1 1.47811720850067569e+01
1690 1 1.47830734471288299e+01
1691 1 1.44199952647160767e+01
1692 1 1.48564766197911915e+01
1693 1 1.50674164159013344e+01
1694 1 1.49815919235932480e+01
1695 1 1.50334824667460047e+01
1696 1 1.76501896265300644e+01
1697 1 1.60123485444156941e+01
1698 1 1.61756787919679574e+01
1699 1 1.53897994254149495e+01
1700 1 1.54758117748802864e+01
1701 1 1.60620041145721579e+01
1702 1 1.74368638774272426e+01
1703 1 1.69392253270749862e+01
1704 1 1.56969002574252183e+01
1705 1 1.55593930227978774e+01
1706 1 1.97997547279267785e+01
1707 1 1.68599074905920183e+01
1708 1 1.73190026413682929e+01
1709 1 1.71903199341347275e+01
1710 1 1.58276324754546280e+01
1711 1 1.60955225670625914e+01
1712 1 1.80785183560744258e+01
1713 1 2.43043118681865451e+01
1714 1 2.13851104407824906e+01
1715 1 2.33203856445807496e+01
1716 1 1.94416373368578022e+01
1717 1 2.22142119515563436e+01
1718 1 2.92287204636729427e+01
1719 1 2.10194602903237673e+01
1720 1 1.87013188603569880e+01
1721 1 1.68959892197290600e+01
1722 1 2.29505482182776426e+01
1723 1 2.34485079178359221e+01
1724 1 2.63318958966082199e+01
1725 1 2.56988320298012454e+01
1726 1 2.82107886852060332e+01
1727 1 2.29410381810571842e+01
1728 1 1.68369812024735879e+01
1729 1 2.12103453605871195e+01
1730 1 2.59757350039849406e+01
1731 1 1.62745061739771160e+01
1732 1 3.41748833337304205e+01
1733 1 2.77268458960655018e+01
1734 1 3.64836276446679477e+01
1735 1 2.77881567367347735e+01
1736 1 2.47989234361280175e+01
1737 1 2.45242605309021506e+01
1738 1 2.75314793256757575e+01
1739 1 2.70990978520332888e+01
1740 1 3.06066364706314964e+01
1741 1 2.83195725054591456e+01
1742 1 2.71178957455316336e+01
1743 1 2.65934154336317796e+01
1744 1 2.63216103868182358e+01
1745 1 2.63219681274888835e+01
1746 1 3.21865552295345196e+01
1747 1 3.14077512039621247e+01
1748 1 3.35965263707682809e+01
1749 1 2.68961980862941594e+01
1750 1 2.05178749941908443e+01
1751 1 2.34027125328183487e+01
1752 1 2.04984142390564905e+01
1753 1 1.95407468025145334e+01
1754 1 1.84865719419596317e+01
1755 1 1.86756781403577001e+01
1756 1 1.85515479808596311e+01
1757 1 1.69810173016552959e+01
1758 1 1.69316062031203742e+01
1759 1 1.76311664254008775e+01
1760 1 1.71476489328643567e+01
1761 1 1.63992213559547224e+01
1762 1 1.83634483405141111e+01
1763 1 1.03180756977972052e+01
1764 1 1.15382887238125527e+01
1765 1 8.65556863173699220e+00
1766 1 9.17192730880807261e+00
1767 1 1.11610560683626741e+01
1768 1 1.34866330840052235e+01
1769 1 1.28100364314201283e+01
1770 1 1.53723392193284685e+01
1771 1 1.06453661229337815e+01
1772 1 1.08991886737983421e+01
1773 1 1.24481245474183151e+01
1774 1 1.52972131882091631e+01
1775 1 1.46936895212931642e+01
1776 1 1.30152176414368252e+01
1777 1 1.19077141960049833e+01
1778 1 9.72370521426469026e+00
1779 1 8.65392151882713989e+00
1780 1 8.15389218472435040e+00
1781 1 9.30854883663859667e+00
1782 1 1.03721125224017783e+01
1783 1 6.86416282624147467e+00
1784 1 6.44351786918438307e+00
1785 1 7.31789400923072098e+00
1786 1 7.16865572144414553e+00
1787 1 7.29581613037750998e+00
1788 1 6.41030671490692683e+00
1789 1 5.04875097979980403e+00
1790 1 5.57536883917661452e+00
1791 1 7.99516889524349050e+00
1792 1 1.73960515862036900e+01
1793 1 1.17885678420087086e+01
1794 1 2.08547308764647639e+01
1795 1 6.48135315527406330e+00
1796 1 5.56569572600560036e+00
1797 1 6.09040330366790972e+00
1798 1 4.91262271570873743e+00
1799 1 5.56995662823275950e+00
1800 1 5.22647532005588022e+00
1801 1 4.71012397074279754e+00
1802 1 4.97222562504536292e+00
1803 1 4.18793217817222274e+00
1804 1 4.26181773778520867e+00
1805 1 4.47693506504130845e+00
1806 1 4.69791501153030211e+00
1807 1 4.45883341265836997e+00
1808 1 4.87935468319366805e+00
1809 1 6.27776680601266257e+00
1810 1 5.37157393222026780e+00
1811 1 5.74878979993670480e+00
1812 1 5.96255863635642314e+00
1813 1 6.68178972860194431e+00
1814 1 5.45330425842973732e+00
1815 1 5.08919708779685465e+00
1816 1 4.37263656701832737e+00
1817 1 4.61902769402752167e+00
1818 1 4.79484264568611618e+00
1819 1 4.20165216041876466e+00
1820 1 4.25752359578938311e+00
1821 1 4.14596468402436269e+00
1822 1 4.73189914953918045e+00
1823 1 4.34689636600869100e+00
1824 1 5.12261731162596501e+00
1825 1 4.75893230721060867e+00
1826 1 4.41569700811372368e+00
1827 1 4.45919024570332123e+00
1828 1 4.35318701202161140e+00
1829 1 4.02366333341518700e+00
1830 1 4.16828383843130812e+00
1831 1 4.69379634725813588e+00
1832 1 5.22321420067346942e+00
1833 1 5.08462628536292716e+00
1834 1 4.78385766362763665e+00
1835 1 4.90032499050064807e+00
1836 1 7.49470461182329828e+00
1837 1 6.14522156502657424e+00
1838 1 5.63477124435344123e+00
1839 1 6.16448232442411914e+00
1840 1 6.36781496435950256e+00
1841 1 5.75219374523691851e+00
1842 1 5.54142698695885461e+00
1843 1 5.48318919426770179e+00
1844 1 5.99095607251572382e+00
1845 1 6.99889609419490810e+00
1846 1 6.62828447415212807e+00
1847 1 6.42786363217774603e+00
1848 1 8.43663420265962216e+00
1849 1 7.52962613564960392e+00
1850 1 5.57111021405757523e+00
1851 1 6.57919173546230596e+00
1852 1 5.83323383657278605e+00
1853 1 4.06221704370200687e+00
1854 1 4.07555387120253076e+00
1855 1 4.10123843620865358e+00
1856 1 4.20778364805903227e+00
1857 1 4.46425595952023979e+00
1858 1 4.23714393702168479e+00
1859 1 4.48336891049688369e+00
1860 1 4.78455908969922561e+00
1861 1 4.69770473499454422e+00
1862 1 4.15468508178051721e+00
1863 1 3.99419651747341220e+00
1864 1 4.00003732771350151e+00
1865 1 4.28478673422648981e+00
1866 1 4.08802342486403791e+00
1867 1 4.18479088852763770e+00
1868 1 4.08911638051541715e+00
1869 1 4.46728674357051680e+00
1870 1 4.20228021921062744e+00
1871 1 3.99815548035369561e+00
1872 1 3.96855726161114353e+00
1873 1 3.95748784640069040e+00
1874 1 3.98692010611319692e+00
1875 1 3.96366168306646172e+00
1876 1 4.05112857697336182e+00
1877 1 4.50743273355662488e+00
1878 1 4.41342889744529820e+00
1879 1 4.61823653077450658e+00
1880 1 5.11279317208282791e+00
1881 1 5.30616840183108973e+00
1882 1 5.30990753761037659e+00
1883 1 4.89171152449601099e+00
1884 1 5.23475737095798888e+00
1885 1 5.89885708306907652e+00
1886 1 5.95500460868929693e+00
1887 1 5.72159325655097817e+00
1888 1 5.14367370803665569e+00
1889 1 5.15825495622494312e+00
1890 1 5.49912303734193220e+00
1891 1 7.33921051925069001e+00
1892 1 6.22970053572402538e+00
1893 1 6.79743659704884795e+00
1894 1 8.02473743899075842e+00
1895 1 7.01022727906787768e+00
1896 1 6.60273928760094897e+00
1897 1 6.86833229926148281e+00
1898 1 6.12509377335536698e+00
1899 1 5.93740841198941460e+00
1900 1 5.58428898674178598e+00
1901 1 5.28858120542695964e+00
1902 1 6.78684742399250673e+00
1903 1 6.36339558953875617e+00
1904 1 8.62147970274759778e+00
1905 1 8.62541984127243921e+00
1906 1 7.65620647857527015e+00
1907 1 9.74255529472667803e+00
1908 1 1.16060976367049431e+01
1909 1 1.02885576676578179e+01
1910 1 1.10143795854877631e+01
1911 1 1.05784414605541812e+01
1912 1 1.16188604060646448e+01
1913 1 9.64861052729271407e+00
1914 1 8.23975681307383390e+00
1915 1 9.21111652754946242e+00
1916 1 8.48598349524343298e+00
1917 1 7.81481967002536049e+00
1918 1 9.40392375364826094e+00
1919 1 9.68414051124225672e+00
1920 1 8.64922800118494273e+00
1921 1 8.19191051606563825e+00
1922 1 7.34717506846589785e+00
1923 1 1.04740960135649690e+01
1924 1 1.12629854088080883e+01
1925 1 1.51547069859999155e+01
1926 1 1.32274062377214676e+01
1927 1 1.22092826872891997e+01
1928 1 1.30233862678730574e+01
1929 1 1.23327706585307890e+01
1930 1 1.23826776494955837e+01
1931 1 1.16620572658518551e+01
1932 1 1.12128696265808827e+01
1933 1 1.39760272321631085e+01
1934 1 1.34977203249591273e+01
1935 1 1.51008696455429376e+01
1936 1 1.43119344151458439e+01
1937 1 1.37474290474830507e+01
1938 1 1.30275510105877856e+01
1939 1 1.05759572190773365e+01
1940 1 1.08100308790092754e+01
1941 1 1.04415997381685841e+01
1942 1 9.59861300675346740e+00
1943 1 8.54392355436331385e+00
1944 1 1.00259012111171266e+01
1945 1 1.21866470888714105e+01
1946 1 1.20832091129493868e+01
1947 1 1.13269342987134696e+01
1948 1 8.97527000793371954e+00
1949 1 1.44118132435151960e+01
1950 1 1.42293745684622035e+01
1951 1 1.35656293213824650e+01
1952 1 1.42541721687262459e+01
1953 1 1.40196613510166337e+01
1954 1 1.30574364191270043e+01
1955 1 1.58230943223934037e+01
1956 1 1.49732363962488755e+01
1957 1 1.50556867494524820e+01
1958 1 1.59117683725525598e+01
1959 1 1.58411017210745246e+01
1960 1 1.59020698043504503e+01
1961 1 1.51261648471028032e+01
1962 1 1.80199697797962450e+01
1963 1 1.69866660170077637e+01
1964 1 1.65508049616018944e+01
1965 1 1.75325335609315758e+01
1966 1 1.65045498557480244e+01
1967 1 1.67401217635496629e+01
1968 1 1.62821853560577736e+01
1969 1 1.51886612435088946e+01
1970 1 1.71469292780028013e+01
1971 1 1.66880845614955540e+01
1972 1 1.61572814343962072e+01
1973 1 1.44376208597746860e+01
1974 1 1.52349054995654569e+01
1975 1 1.49276957790724740e+01
1976 1 1.39314547098181531e+01
1977 1 1.31189905822120192e+01
1978 1 1.50116440745559050e+01
1979 1 1.53503654515787531e+01
1980 1 1.48211185925216071e+01
1981 1 1.36635517620666977e+01
1982 1 1.43202380667343316e+01
1983 1 1.55716651177303778e+01
1984 1 1.51853722567287690e+01
1985 1 1.48015038585768401e+01
1986 1 1.43606565300697113e+01
1987 1 1.40652732353261953e+01
1988 1 1.37510483989162413e+01
1989 1 1.39935864914843275e+01
1990 1 1.41335211208726470e+01
1991 1 1.41844374397603854e+01
1992 1 1.37878665461322392e+01
1993 1 1.40813765186704067e+01
1994 1 1.42265652640836819e+01
1995 1 1.46944942231469113e+01
1996 1 1.36921616284826264e+01
1997 1 1.18473018972500128e+01
1998 1 1.28414677964649062e+01
1999 1 1.25800965775704281e+01
2000 1 1.31023592974627530e+01
2001 1 1.33524439123278533e+01
2002 1 1.28626375604746208e+01
2003 1 1.19653943676277201e+01
2004 1 1.23017658277088575e+01
2005 1 1.10971301140243206e+01
2006 1 1.20975089941375487e+01
2007 1 1.14134290718646554e+01
2008 1 1.26811571827042524e+01
2009 1 1.21693449535230727e+01
2010 1 1.03251973266476895e+01
2011 1 9.55143955822743429e+00
2012 1 8.59119091511587385e+00
2013 1 7.77327306703065091e+00
2014 1 7.39093061252471717e+00
2015 1 8.00337789483936568e+00
2016 1 8.08215593680426458e+00
2017 1 8.72476996093810975e+00
2018 1 9.05970834238714318e+00
2019 1 9.79268853667193717e+00
2020 1 9.40456237053788691e+00
2021 1 1.06960054430201801e+01
2022 1 1.04606404372606541e+01
2023 1 1.11846605612248577e+01
2024 1 1.17319550665019694e+01
2025 1 1.16981373748132000e+01
2026 1 1.27718229937692342e+01
2027 1 1.23508598306108794e+01
2028 1 1.22912998591388192e+01
2029 1 1.27702727417512065e+01
2030 1 8.28592862314611089e+00
2031 1 1.32507914221969560e+01
2032 1 1.35230003386999353e+01
2033 1 1.33662720974913167e+01
2034 1 1.31660898985200081e+01
2035 1 1.29228024755786102e+01
2036 1 1.31684027413956084e+01
2037 1 1.33343910698579027e+01
2038 1 1.23333707841122315e+01
2039 1 1.26122504030456319e+01
2040 1 1.01885191929056056e+01
2041 1 9.30777853000611444e+00
2042 1 1.00250117733630244e+01
2043 1 9.37142555681829492e+00
2044 1 8.45329135094351791e+00
2045 1 9.18500971162413116e+00
2046 1 1.04345889504971066e+01
2047 1 1.10711310383418677e+01
2048 1 1.13308852757062564e+01
2049 1 7.48556915443655058e+00
2050 1 6.84439507868051500e+00
2051 1 9.24731045486943337e+00
2052 1 1.00267324470782899e+01
2053 1 1.03210373020632460e+01
2054 1 1.17735028920010727e+01
2055 1 1.39184467657947835e+01
2056 1 1.33785837170534254e+01
2057 1 1.38958077740806942e+01
2058 1 1.42538687876902213e+01
2059 1 1.35438969905303441e+01
2060 1 1.45370477140847942e+01
2061 1 6.53206979125061071e+00
2062 1 6.32882266364997470e+00
2063 1 6.84408724927058021e+00
2064 1 7.03209029795405982e+00
2065 1 6.84416456860384859e+00
2066 1 7.22252455693837536e+00
2067 1 6.73559083755545807e+00
2068 1 7.90252684632960190e+00
2069 1 7.50022303520323774e+00
2070 1 7.99809636897904852e+00
2071 1 7.36254342351749713e+00
2072 1 9.04138258558756114e+00
2073 1 8.16898100806534622e+00
2074 1 4.59608917194522171e+00
2075 1 4.95193469018260313e+00
2076 1 4.63577929824358748e+00
2077 1 4.38624227530550659e+00
2078 1 4.26746297148404619e+00
2079 1 4.45866621044477895e+00
2080 1 4.54222325793094406e+00
2081 1 4.93526743329642503e+00
2082 1 5.36596424301040464e+00
2083 1 6.02016870791200276e+00
2084 1 6.90288006961472966e+00
2085 1 7.73408575906388318e+00
2086 1 6.78644580090654870e+00
2087 1 6.03197133224373871e+00
2088 1 7.00793790062176924e+00
2089 1 8.82614783846197071e+00
2090 1 7.58955012803918017e+00
2091 1 9.12805702166706645e+00
2092 1 1.04517706527910654e+01
2093 1 1.05235822651881961e+01
2094 1 1.17316767259132053e+01
2095 1 1.28146852004516223e+01
2096 1 9.02919867309197954e+00
2097 1 9.79489639182738969e+00
2098 1 8.31272817218848914e+00
2099 1 9.49601457436833130e+00
2100 1 2.44673042640486109e+01
2101 1 2.24725859533067620e+01
2102 1 1.98021089195556925e+01
2103 1 3.35118265731919465e+01
2104 1 3.62714369205149438e+01
2105 1 3.58813043672513601e+01
2106 1 3.95039457950670894e+01
2107 1 3.80488230738477426e+01
2108 1 3.66531127745332768e+01
2109 1 3.53435188172870127e+01
2110 1 5.34062809517889292e+01
2111 1 4.75793755953698962e+01
2112 1 4.01347230873739562e+01
2113 1 4.23179382579458050e+01
2114 1 4.13487862381775244e+01
2115 1 3.65240293728056074e+01
2116 1 3.74574175453440930e+01
2117 1 3.90385806451147488e+01
2118 1 3.88790607249004694e+01
2119 1 3.66656508060636739e+01
2120 1 3.54000727913134128e+01
2121 1 3.65000518834026053e+01
2122 1 3.56311052474197112e+01
2123 1 3.52342634764271381e+01
2124 1 3.44718770520225917e+01
2125 1 3.48190942322789638e+01
2126 1 3.68789116435189186e+01
2127 1 3.79003548958343472e+01
2128 1 3.66870774622066236e+01
2129 1 4.83048385698878704e+01
2130 1 4.14951334050111100e+01
2131 1 3.83427940385077335e+01
2132 1 3.67553857766600203e+01
2133 1 3.81267359576949403e+01
2134 1 3.68300401070761936e+01
2135 1 3.67536021819210390e+01
2136 1 3.91028414375916498e+01
2137 1 3.72059962032682918e+01
2138 1 3.64053600823347097e+01
2139 1 3.98756272979883519e+01
2140 1 4.01233029639963803e+01
2141 1 3.74969465711732113e+01
2142 1 4.19655031857261633e+01
2143 1 3.88046220906412671e+01
2144 1 3.90625073262309286e+01
2145 1 4.69258767894904238e+01
2146 1 2.89706467810421167e+01
2147 1 4.07072256600025568e+01
2148 1 5.43877846381155905e+01
2149 1 5.27164558057408996e+01
2150 1 4.57763836110054356e+01
2151 1 5.08096803323261668e+01
2152 1 4.70672282327110807e+01
2153 1 4.99558598420380164e+01
2154 1 4.40536306404853377e+01
2155 1 4.99724085132838169e+01
2156 1 4.39376406881889423e+01
2157 1 5.15091418981954021e+01
2158 1 5.13815905373608999e+01
2159 1 5.66642022144677426e+01
2160 1 4.49240835259234288e+01
2161 1 4.38237309930618508e+01
2162 1 4.43605159878453179e+01
2163 1 4.60051335512821211e+01
2164 1 5.47810235113072679e+01
2165 1 4.61176436311087556e+01
2166 1 3.04280072841343738e+01
2167 1 3.77938470695731539e+01
2168 1 3.89931833260645533e+01
2169 1 3.75875376763799451e+01
2170 1 3.40282338940612163e+01
2171 1 3.20784827435929145e+01
2172 1 3.45896727614342225e+01
2173 1 2.80956743433146237e+01
2174 1 2.98224057769564865e+01
2175 1 2.21286357785177223e+01
2176 1 2.53703630092198864e+01
2177 1 3.43435975050084679e+01
2178 1 3.54301194957528693e+01
2179 1 4.43283939720637790e+01
2180 1 4.02284168184504480e+01
2181 1 3.92958465449871497e+01
2182 1 4.40648493802917898e+01
2183 1 4.35285562134113135e+01
2184 1 4.26001769547017446e+01
2185 1 4.46617324408436644e+01
2186 1 4.10199755604221963e+01
2187 1 3.10983577767328008e+01
2188 1 3.51997797016360892e+01
2189 1 2.77751859548995057e+01
2190 1 2.91018942417518680e+01
2191 1 2.43376233324829911e+01
2192 1 1.93637281394877157e+01
2193 1 2.12307033478222138e+01
2194 1 2.32516690671721200e+01
2195 1 2.42126160392153622e+01
2196 1 2.70142183446154327e+01
2197 1 3.41617853297057934e+01
2198 1 2.10799811038633287e+01
2199 1 2.10202234272560275e+01
2200 1 1.66298612147576321e+01
2201 1 1.84470824218605323e+01
2202 1 1.96520581811975994e+01
2203 1 1.77811829139098450e+01
2204 1 1.53473770628453234e+01
2205 1 1.67479146851909704e+01
2206 1 1.58913451567556390e+01
2207 1 1.73423332750447052e+01
2208 1 1.41895603677911417e+01
2209 1 1.78289924134285691e+01
2210 1 1.77126698982342425e+01
2211 1 1.99290729514131399e+01
2212 1 2.15946371488307172e+01
2213 1 2.10829368602350549e+01
2214 1 1.99717341340838104e+01
2215 1 2.33205796209884788e+01
2216 1 2.48563819287021985e+01
2217 1 2.35705877559334276e+01
2218 1 2.15591625546752397e+01
2219 1 2.28571382151184181e+01
2220 1 2.08808272517559672e+01
2221 1 2.25386446816716770e+01
2222 1 2.20355350487696242e+01
2223 1 2.07631055275979186e+01
2224 1 2.65284768261518806e+01
2225 1 2.54234710050517450e+01
2226 1 2.92247315544479598e+01
2227 1 1.79433249814548539e+01
2228 1 1.92619072115455872e+01
2229 1 3.27737377917928185e+01
2230 1 3.47861793474080017e+01
2231 1 5.18580398389076649e+01
2232 1 3.89925002295187895e+01
2233 1 4.38581403358830855e+01
2234 1 4.31498649776518519e+01
2235 1 4.70848362120199511e+01
2236 1 4.40101556487004970e+01
2237 1 4.12342158746891201e+01
2238 1 3.88453842717134492e+01
2239 1 4.06973191276626025e+01
2240 1 3.71033217448703283e+01
2241 1 3.85254623458972532e+01
2242 1 3.92317463841932295e+01
2243 1 3.59799093539909265e+01
2244 1 3.63242271067899765e+01
2245 1 3.17505408874366601e+01
2246 1 3.47339150950751687e+01
2247 1 4.47808030289368162e+01
2248 1 4.97560020621202241e+01
2249 1 4.47954425988584717e+01
2250 1 4.17351438802576737e+01
2251 1 4.65168738558393571e+01
2252 1 3.68260947836280295e+01
2253 1 4.08491605074296515e+01
2254 1 3.29879189207136463e+01
2255 1 4.37082110687145757e+01
2256 1 4.38718373246968127e+01
2257 1 5.06356265974391562e+01
2258 1 4.01691778100826866e+01
2259 1 3.01886128849470872e+01
2260 1 3.25419188032802040e+01
2261 1 3.58661994103231478e+01
2262 1 3.70786656099580654e+01
2263 1 3.20307367369043305e+01
2264 1 3.42761935996025073e+01
2265 1 2.44677303217020423e+01
2266 1 2.80543420356685971e+01
2267 1 3.05287271894724626e+01
2268 1 2.16526473897214480e+01
2269 1 2.10429030173835656e+01
2270 1 2.07569810947410396e+01
2271 1 2.15570538151040161e+01
2272 1 2.13625372935281135e+01
2273 1 2.20544346923739418e+01
2274 1 2.15386976386465463e+01
2275 1 2.30773276448582152e+01
2276 1 2.26024673115342765e+01
2277 1 2.22772784751775283e+01
2278 1 2.36079583834816980e+01
2279 1 2.26350598621861430e+01
2280 1 2.18436518085938935e+01
2281 1 2.43315730137191792e+01
2282 1 2.52938684162574319e+01
2283 1 2.83406541565367789e+01
2284 1 3.06760685323913513e+01
2285 1 2.61544658271491990e+01
2286 1 2.35125840833833664e+01
2287 1 2.29942029032231723e+01
2288 1 2.00746842387894553e+01
2289 1 2.09484867586189090e+01
2290 1 2.03335339934576851e+01
2291 1 2.01955822293545317e+01
2292 1 2.03904859271679939e+01
2293 1 2.07714780422644552e+01
2294 1 2.00422520544669851e+01
2295 1 2.04149863973356531e+01
2296 1 2.03297127830108408e+01
2297 1 5.31530556500235889e+01
2298 1 4.96672690151805725e+01
2299 1 4.70300727385439998e+01
2300 1 5.02700192525879928e+01
2301 1 4.31759828646735286e+01
2302 1 4.85764452205945929e+01
2303 1 5.09303801525606303e+01
2304 1 4.70187774676827743e+01
2305 1 5.01576680369121704e+01
2306 1 4.78547345608563290e+01
2307 1 4.92647164046745587e+01
2308 1 4.76133978882264302e+01
2309 1 5.25826743527199199e+01
2310 1 5.46609990838548399e+01
2311 1 5.43416411844017517e+01
2312 1 5.30932870323364341e+01
2313 1 4.80129920148654250e+01
2314 1 5.24182158532146332e+01
2315 1 3.39617332887914287e+01
2316 1 3.14855830171770066e+01
2317 1 3.04763188231308888e+01
2318 1 2.65891007455214954e+01
2319 1 2.81979336815165844e+01
2320 1 3.35651531697493795e+01
2321 1 3.20860404486125148e+01
2322 1 2.90577953546729901e+01
2323 1 2.68808191263936678e+01
2324 1 2.74688386308423915e+01
2325 1 2.79470098889274539e+01
2326 1 2.96717298884518002e+01
2327 1 2.51976953629277460e+01
2328 1 2.63783782071827595e+01
2329 1 2.77471057453052943e+01
2330 1 2.67960380047824316e+01
2331 1 2.57660518338550766e+01
2332 1 2.33305398455266051e+01
2333 1 2.21619549550969985e+01
2334 1 2.44589795014724132e+01
2335 1 2.43898026234939600e+01
2336 1 2.32653927875701605e+01
2337 1 2.18520418999090644e+01
2338 1 2.47757686886460888e+01
2339 1 2.23730553537973407e+01
2340 1 2.26389722078953604e+01
2341 1 2.11134280997358772e+01
2342 1 2.11364317834036086e+01
2343 1 2.05518329738814600e+01
2344 1 2.29992108871776146e+01
2345 1 2.55872260166754941e+01
2346 1 2.49735548243592653e+01
2347 1 2.37077241905448375e+01
2348 1 2.21051747522432933e+01
2349 1 2.61242842740480370e+01
2350 1 2.18348919286840228e+01
2351 1 2.04472302920803379e+01
2352 1 2.06509419320765808e+01
2353 1 2.05347339931006907e+01
2354 1 2.06972978469513329e+01
2355 1 2.12975090445663078e+01
2356 1 2.12260880157050806e+01
2357 1 2.01965665992640879e+01
2358 1 2.02938292339211870e+01
2359 1 1.94452106992531384e+01
2360 1 1.99861260314972924e+01
2361 1 1.89295520346129713e+01
2362 1 2.15275231228507096e+01
2363 1 3.24874930744271069e+01
2364 1 3.58252556039486336e+01
2365 1 5.20109857636276232e+01
2366 1 5.15754244925146281e+01
2367 1 5.31123766857303039e+01
2368 1 4.97339797244281741e+01
2369 1 4.35265642168453724e+01
2370 1 3.05327201314740506e+01
2371 1 2.59266316548216267e+01
2372 1 3.08893142062312016e+01
2373 1 3.28458044254106056e+01
2374 1 3.75844456192912730e+01
2375 1 3.79460973436452065e+01
2376 1 4.06020958527955003e+01
2377 1 3.88256401794730408e+01
2378 1 3.44326632582888053e+01
2379 1 2.87838608701787351e+01
2380 1 2.66349037698656588e+01
2381 1 2.40526086133696460e+01
2382 1 2.41235067259619420e+01
2383 1 2.72640561705677982e+01
2384 1 2.71864229900076673e+01
2385 1 2.93533919998120645e+01
2386 1 2.33446817816505536e+01
2387 1 3.41921363900175663e+01
2388 1 2.88308262340937418e+01
2389 1 2.36531652342658703e+01
2390 1 2.11673624167638970e+01
2391 1 2.12550857778075688e+01
2392 1 2.65431985231627223e+01
2393 1 2.44986736955713944e+01
2394 1 3.19089006094047605e+01
2395 1 2.91712068036975154e+01
2396 1 2.34808072946641531e+01
2397 1 2.90914319108577857e+01
2398 1 2.61202529847997162e+01
2399 1 2.21535601299063920e+01
2400 1 2.07750427662479886e+01
2401 1 2.31737896532436487e+01
2402 1 2.07538786702529165e+01
2403 1 2.05011083718679110e+01
2404 1 2.06917767795782588e+01
2405 1 1.99987738428391779e+01
2406 1 2.18138808457739195e+01
2407 1 2.17536947521715440e+01
2408 1 2.16480366342792898e+01
2409 1 2.06894542687119269e+01
2410 1 2.10131907366580712e+01
2411 1 2.23201209996044092e+01
2412 1 2.18561013084022200e+01
2413 1 2.34676531506611852e+01
2414 1 2.42704746205417230e+01
2415 1 1.93309513023063069e+01
2416 1 2.50113322384937469e+01
2417 1 2.46969202345550727e+01
2418 1 2.45485542470589060e+01
2419 1 2.51620106224282196e+01
2420 1 2.44334355287008371e+01
2421 1 2.51317837710682426e+01
2422 1 2.25841999512546678e+01
2423 1 2.36302487654450211e+01
2424 1 2.45102143024104606e+01
2425 1 2.35647291652281936e+01
2426 1 2.21762349192834485e+01
2427 1 2.18225234509991211e+01
2428 1 1.99596082078421233e+01
2429 1 2.34269703205952347e+01
2430 1 2.56795886520507395e+01
2431 1 2.50302718715598509e+01
2432 1 2.50282016526643680e+01
2433 1 2.53526588466406331e+01
2434 1 2.33768654916442280e+01
2435 1 1.74823962309537642e+01
2436 1 1.65375323443638536e+01
2437 1 2.06365894960262786e+01
2438 1 1.87913569665947300e+01
2439 1 1.79801963482556566e+01
2440 1 2.01347658111505972e+01
2441 1 2.09232965821237791e+01
2442 1 2.34374699646688462e+01
2443 1 3.00553947200604235e+01
2444 1 2.63248694061048631e+01
2445 1 2.31309286549006288e+01
2446 1 1.53305306512466917e+01
2447 1 2.72157794044977202e+01
2448 1 2.83719848417857925e+01
2449 1 2.50130852558394778e+01
2450 1 2.37880314334902039e+01
2451 1 2.05585105454804982e+01
2452 1 2.04867343776041082e+01
2453 1 2.07994863805273162e+01
2454 1 1.28372446120408661e+01
2455 1 1.42960692166285952e+01
2456 1 1.32137242315864203e+01
2457 1 1.39895308150243363e+01
2458 1 1.49422172437074217e+01
2459 1 1.63544809876213435e+01
2460 1 1.66099957724322422e+01
2461 1 1.25099772008461230e+01
2462 1 1.19116108519357695e+01
2463 1 1.53729866042099470e+01
2464 1 1.38759343596473297e+01
2465 1 1.77992151612615785e+01
2466 1 2.05086706658960480e+01
2467 1 1.84340845125855104e+01
2468 1 2.63338806885238448e+01
2469 1 2.34885970499772050e+01
2470 1 1.73421484556760070e+01
2471 1 3.02838631689465636e+01
2472 1 2.41007106059559284e+01
2473 1 2.60457250453071154e+01
2474 1 2.64064596812315919e+01
2475 1 3.60805222410467508e+01
2476 1 3.75208608881260801e+01
2477 1 3.78339324900782259e+01
2478 1 3.55797420111896159e+01
2479 1 4.67846374985607056e+01
2480 1 4.77351497710897803e+01
2481 1 5.40591530311211912e+01
2482 1 5.61648039940297608e+01
2483 1 5.48056023569072792e+01
2484 1 3.57933349903247304e+01
2485 1 3.62199189271003235e+01
2486 1 3.57846405098091438e+01
2487 1 3.80164334449738419e+01
2488 1 4.16970175873380029e+01
2489 1 3.85251779215639019e+01
2490 1 5.23277305581255732e+01
2491 1 4.80247334414033560e+01
2492 1 4.51592278340145725e+01
2493 1 3.90836710328492103e+01
2494 1 4.03765114808026127e+01
2495 1 3.17046471593303245e+01
2496 1 4.93217994192927947e+01
2497 1 3.47054095617389464e+01
2498 1 2.86970148306495680e+01
2499 1 4.25614611301982535e+01
2500 1 4.43377064478917404e+01
2501 1 4.59978226770359839e+01
2502 1 4.73682495050873698e+01
2503 1 1.65673902415627126e+01
2504 1 1.61643683531609774e+01
2505 1 1.62131993820523661e+01
2506 1 1.79121491605691538e+01
2507 1 1.53945538393697330e+01
2508 1 1.39267802223740809e+01
2509 1 1.59797789093392382e+01
2510 1 1.55936878832050230e+01
2511 1 1.79152590641392102e+01
2512 1 2.25636954544629873e+01
2513 1 2.06356870116546069e+01
2514 1 2.45063758191368777e+01
2515 1 2.60567866856333268e+01
2516 1 2.99620713076031429e+01
2517 1 2.77583863980108241e+01
2518 1 2.55148526928762429e+01
2519 1 2.30784376064624723e+01
2520 1 2.61188159830874120e+01
2521 1 2.20236189390576946e+01
2522 1 2.40940904792599540e+01
2523 1 1.80224909690973725e+01
2524 1 1.70894103474540806e+01
2525 1 1.88301964399395239e+01
2526 1 1.70514769731976941e+01
2527 1 1.97168667567569997e+01
2528 1 1.81484429312973035e+01
2529 1 1.11907216699739944e+01
2530 1 6.55378463674121470e+00
2531 1 5.66714033166830689e+00
2532 1 5.47370495642412713e+00
2533 1 6.22133273436046164e+00
2534 1 1.35932123244152976e+01
2535 1 3.32606822787501457e+01
2536 1 3.32951779095099170e+01
2537 1 3.33011371747229887e+01
2538 1 3.33748474339728745e+01
2539 1 3.30842778605896584e+01
2540 1 3.31794322779615811e+01
2541 1 3.24648146882717370e+01
2542 1 3.27946222917473946e+01
2543 1 3.30256100171838796e+01
2544 1 3.14336739364455973e+01
2545 1 3.24393709063169169e+01
2546 1 3.18238381117454203e+01
2547 1 3.26617643153340609e+01
2548 1 3.15833252609469959e+01
2549 1 2.96322938139081060e+01
2550 1 2.09692476704422894e+01
2551 1 1.80197399781592864e+01
2552 1 2.28374326660205824e+01
2553 1 2.46000215995404474e+01
2554 1 2.28191205802424726e+01
2555 1 2.04489372150613349e+01
2556 1 2.06343391144735122e+01
2557 1 1.95635977728084320e+01
2558 1 1.91411875326947296e+01
2559 1 1.93208993306967081e+01
2560 1 1.91136878364181797e+01
2561 1 1.96866215627483605e+01
2562 1 1.98674451594204875e+01
2563 1 1.96145339494091218e+01
2564 1 1.98440925341439360e+01
2565 1 1.98091338794479448e+01
2566 1 1.98771928204254706e+01
2567 1 1.93424189636073898e+01
2568 1 2.07431689214723924e+01
2569 1 2.17188928128014318e+01
2570 1 3.18976513948227201e+01
2571 1 2.43782438095378495e+01
2572 1 2.67015701768464560e+01
2573 1 3.15169363688832220e+01
2574 1 3.14544148177678728e+01
2575 1 2.85027762852104445e+01
2576 1 2.60044560032215628e+01
2577 1 2.69695285063865668e+01
2578 1 2.09280650785836784e+01
2579 1 2.19126760050856504e+01
2580 1 2.31016483141336693e+01
2581 1 2.19604219492662800e+01
2582 1 2.21935845130495970e+01
2583 1 2.36435990402564187e+01
2584 1 2.33523542311555730e+01
2585 1 2.21611553473577381e+01
2586 1 2.21667300777064931e+01
2587 1 2.77496770037789773e+01
2588 1 2.23509725150803753e+01
2589 1 2.02571666139303517e+01
2590 1 2.05231329226951651e+01
2591 1 1.61404328496555571e+01
2592 1 2.46645585813660091e+01
2593 1 2.69321363372018823e+01
2594 1 2.64493235188764650e+01
2595 1 2.82413607423275010e+01
2596 1 2.39420087328858564e+01
2597 1 2.11639274441977072e+01
2598 1 2.04390936304828905e+01
2599 1 1.82814132642465879e+01
2600 1 3.57863733163011588e+01
2601 1 3.99062909612879508e+01
2602 1 3.51747611080785063e+01
2603 1 1.57564356843684923e+01
2604 1 3.21316276398985821e+01
2605 1 3.53927290801034786e+01
2606 1 3.13829185361733529e+01
2607 1 2.88376048787349966e+01
2608 1 2.67228501048021627e+01
2609 1 2.87005701482334423e+01
2610 1 2.53302760293233575e+01
2611 1 2.64222195016001109e+01
2612 1 2.46927239052105350e+01
2613 1 2.34986203107704235e+01
2614 1 2.39167472555738847e+01
2615 1 2.51248734697224165e+01
2616 1 2.52016186872861887e+01
2617 1 3.10633087841808404e+01
2618 1 3.08517297840306135e+01
2619 1 2.88085140478048629e+01
2620 1 2.78768505938446296e+01
2621 1 2.59691473590507442e+01
2622 1 2.36756253897242246e+01
2623 1 2.86779674386499188e+01
2624 1 3.00924009794252143e+01
2625 1 3.34562664805865779e+01
2626 1 3.63225624410013310e+01
2627 1 3.49515958598259786e+01
2628 1 3.36276637629182176e+01
2629 1 3.58847501679398491e+01
2630 1 3.91298382222548966e+01
2631 1 3.80869579279470827e+01
2632 1 2.59281788711457324e+01
2633 1 2.82523568733585009e+01
2634 1 2.51434151255740090e+01
2635 1 2.21573699815566023e+01
2636 1 2.30905400356870310e+01
2637 1 2.23222628067469770e+01
2638 1 2.21215994010128902e+01
2639 1 2.36500156794732739e+01
2640 1 2.55937511261015658e+01
2641 1 3.70450679775380749e+01
2642 1 2.52390616115840558e+01
2643 1 2.22001951323328583e+01
2644 1 2.18957415188350772e+01
2645 1 2.15553633543631449e+01
2646 1 2.20467499094781694e+01
2647 1 2.57731831344492441e+01
2648 1 2.20891871430728166e+01
2649 1 2.60089249378560687e+01
2650 1 2.40037855203898509e+01
2651 1 3.11695761170758203e+01
2652 1 2.39291586996283918e+01
2653 1 2.61995860096385158e+01
2654 1 2.38673542187060512e+01
2655 1 2.98734402008851312e+01
2656 1 3.15212903447026775e+01
2657 1 2.84348557391339902e+01
2658 1 2.30971933865843866e+01
2659 1 3.90232713835310321e+01
2660 1 3.73664334326463816e+01
2661 1 3.45431045344525032e+01
2662 1 3.69822324347465639e+01
2663 1 3.63288634179690249e+01
2664 1 3.87322304671738209e+01
2665 1 3.72539920155987119e+01
2666 1 3.52456605094927014e+01
2667 1 3.58512651636665325e+01
2668 1 3.87161907069009743e+01
2669 1 3.86849186208376992e+01
2670 1 3.81019147350441756e+01
2671 1 2.87483616744608561e+01
2672 1 3.42626605284366690e+01
2673 1 3.70081511748416290e+01
2674 1 3.47332635088548116e+01
2675 1 3.53550019134355153e+01
2676 1 3.67914032036087519e+01
2677 1 3.72602866590939286e+01
2678 1 3.07332362578662313e+01
2679 1 3.31341300303085902e+01
2680 1 3.11105383159934732e+01
2681 1 3.17640986676667936e+01
2682 1 3.48809939118510499e+01
2683 1 3.67867049915757249e+01
2684 1 3.69318494011830865e+01
2685 1 3.12852689814690699e+01
2686 1 2.80649988147461400e+01
2687 1 3.00313263873482015e+01
2688 1 2.93252291099960090e+01
2689 1 2.35007779796517191e+01
2690 1 2.65804175443199711e+01
2691 1 2.36777405342152747e+01
2692 1 2.41776730348466806e+01
2693 1 2.69478968901248450e+01
2694 1 2.92631928223723783e+01
2695 1 1.77656342120845920e+01
2696 1 2.06671126137829582e+01
2697 1 2.08022894419416353e+01
2698 1 1.44501045137263056e+01
2699 1 1.87094347802155347e+01
2700 1 2.17158341290110961e+01
2701 1 2.20269950151214005e+01
2702 1 1.96695910317724234e+01
2703 1 1.78602913772100962e+01
2704 1 2.07120502175619023e+01
2705 1 1.49458901356469873e+01
2706 1 1.59338259109323488e+01
2707 1 1.54226930037659411e+01
2708 1 1.47026699209432667e+01
2709 1 1.48536086367800770e+01
2710 1 1.67559711442257715e+01
2711 1 1.51588603360077485e+01
2712 1 1.48383991180380974e+01
2713 1 1.62778129158673934e+01
2714 1 1.82194892952133465e+01
2715 1 1.69990561558297273e+01
2716 1 1.79529648522313963e+01
2717 1 1.87521988907347321e+01
2718 1 1.82581532583464501e+01
2719 1 2.61760382959829911e+01
2720 1 2.42452756392774695e+01
2721 1 2.35109200801008811e+01
2722 1 2.29794015010436041e+01
2723 1 2.62434115832128967e+01
2724 1 2.68450237281571695e+01
2725 1 1.94145422502185419e+01
2726 1 2.06557441655040570e+01
2727 1 1.93477524590163803e+01
2728 1 1.80442743953640807e+01
2729 1 1.91762367494720642e+01
2730 1 1.69661862761663365e+01
2731 1 1.75955499503411339e+01
2732 1 1.47128986751223714e+01
2733 1 1.71047232389988615e+01
2734 1 1.61708891963468915e+01
2735 1 1.54321059969110923e+01
2736 1 1.49215465906602081e+01
2737 1 1.55937044454917046e+01
2738 1 1.68453756692968710e+01
2739 1 1.74880845316560389e+01
2740 1 1.82154385061917132e+01
2741 1 1.73750938742543610e+01
2742 1 1.57477429771786230e+01
2743 1 1.79180914010271870e+01
2744 1 2.28440827405377931e+01
2745 1 2.31590959846308628e+01
2746 1 2.08118024003736366e+01
2747 1 2.10083966278696934e+01
2748 1 1.78298261856444995e+01
2749 1 1.84503397643147942e+01
2750 1 1.62846592514600168e+01
2751 1 2.15910731650913021e+01
2752 1 2.01040989586979606e+01
2753 1 1.31001141273983386e+01
2754 1 2.21180151531677893e+01
2755 1 2.12745266893073008e+01
2756 1 1.65393662677423592e+01
2757 1 1.74192350987618276e+01
2758 1 1.47160973116499338e+01
2759 1 1.94058654952094258e+01
2760 1 2.99088240019409604e+01
2761 1 2.52389367254205830e+01
2762 1 2.84150313594503459e+01
2763 1 3.62459871851944229e+01
2764 1 3.25416239436250976e+01
2765 1 3.20641170003529297e+01
2766 1 3.47349859064426596e+01
2767 1 3.29710536457306702e+01
2768 1 3.14317451075190917e+01
2769 1 2.82842048868593885e+01
2770 1 2.59114291286741860e+01
2771 1 2.86027192671338639e+01
2772 1 2.64999994538623582e+01
2773 1 2.44115418569806089e+01
2774 1 3.11621224634980365e+01
2775 1 3.09392734840895827e+01
2776 1 2.96957972734720883e+01
2777 1 2.93800567171791442e+01
2778 1 3.05836927705392512e+01
2779 1 2.88393458576790387e+01
2780 1 2.91446652655633471e+01
2781 1 2.78500871457927630e+01
2782 1 3.08771817175530288e+01
2783 1 3.09665006388420387e+01
2784 1 3.19766181246712513e+01
2785 1 3.17091845607158156e+01
2786 1 3.00280861696130472e+01
2787 1 3.38572350331151668e+01
2788 1 3.20420024330878164e+01
2789 1 3.03504299069017520e+01
2790 1 3.35620097682832466e+01
2791 1 3.02442298432557664e+01
2792 1 3.15702169261295893e+01
2793 1 3.29812183181010354e+01
2794 1 3.50957450722448456e+01
2795 1 2.91844099498934071e+01
2796 1 3.28116132070940409e+01
2797 1 3.12351299033558476e+01
2798 1 3.03835727518275895e+01
2799 1 2.95156922235608938e+01
2800 1 2.96780613233252666e+01
2801 1 3.10544655265158518e+01
2802 1 3.30254599830450175e+01
2803 1 2.97387958335973579e+01
2804 1 3.34209587094797413e+01
2805 1 3.14192441193965202e+01
2806 1 3.37338016518572061e+01
2807 1 3.76247340830470876e+01
2808 1 3.60713322961264424e+01
2809 1 3.87484947774936828e+01
2810 1 3.60254877955807373e+01
2811 1 3.73643912891572612e+01
2812 1 3.00813870955192506e+01
2813 1 2.95257977232216078e+01
2814 1 2.84373395212605793e+01
2815 1 2.98560265338753155e+01
2816 1 3.55933257284361417e+01
2817 1 3.95678945792308667e+01
2818 1 3.69234347562927780e+01
2819 1 3.25940155657200776e+01
2820 1 3.59750572561103894e+01
2821 1 3.98064168271258296e+01
2822 1 3.84673285578388615e+01
2823 1 4.11633765785490482e+01
2824 1 4.42614066823724670e+01
2825 1 4.23631030259193508e+01
2826 1 4.37273104872024874e+01
2827 1 4.60660877158806201e+01
2828 1 4.74592091864945047e+01
2829 1 4.08486114291477520e+01
2830 1 4.24876605295229695e+01
2831 1 4.12993825036012439e+01
2832 1 4.18785356790187180e+01
2833 1 4.38124914468054953e+01
2834 1 4.37012201512083323e+01
2835 1 4.09431379020175044e+01
2836 1 3.70955742111680067e+01
2837 1 4.57645504818777056e+01
2838 1 3.75927178741977883e+01
2839 1 3.98011252198474637e+01
2840 1 3.90804430424044256e+01
2841 1 3.56420775281585591e+01
2842 1 3.33619635070703424e+01
2843 1 3.83155912480016454e+01
2844 1 3.95314501299941981e+01
2845 1 3.88693780538082123e+01
2846 1 3.91463772591248258e+01
2847 1 4.08767225541000698e+01
2848 1 3.81332817857550950e+01
2849 1 3.36202404431991866e+01
2850 1 4.03860843952351516e+01
2851 1 4.07668147263719476e+01
2852 1 3.47649321616596438e+01
2853 1 3.61431859286982373e+01
2854 1 2.76185181047892385e+01
2855 1 3.07925000283396315e+01
2856 1 2.41608599236293493e+01
2857 1 2.33428041366188523e+01
2858 1 2.62436588226843384e+01
2859 1 3.06665171131046144e+01
2860 1 1.88811875120162149e+01
2861 1 2.04144387335147250e+01
2862 1 2.55275938436104006e+01
2863 1 2.61823317679074137e+01
2864 1 1.83282394802835640e+01
2865 1 1.30394577906484663e+01
2866 1 1.63039995070683403e+01
2867 1 1.31924943041259830e+01
2868 1 1.62544928039849275e+01
2869 1 1.46209880593166925e+01
2870 1 1.60636177910149769e+01
2871 1 1.37190264909306379e+01
2872 1 2.96604740303865775e+01
2873 1 1.22316521981988728e+01
2874 1 2.40573660659696529e+01
2875 1 2.85245934117712245e+01
2876 1 1.62861407000204537e+01
2877 1 4.13244623007492109e+01
2878 1 4.01149836797039896e+01
2879 1 3.48921692931147049e+01
2880 1 3.83968200162190030e+01
2881 1 2.46129479405343545e+01
2882 1 1.33104429073062214e+01
2883 1 1.42957985991691121e+01
2884 1 1.51370755222627302e+01
2885 1 1.28043244404338061e+01
2886 1 1.12176997252455379e+01
2887 1 1.10854614564951994e+01
2888 1 1.21125128497373176e+01
2889 1 1.16444032891554272e+01
2890 1 1.22852632040957079e+01
2891 1 1.22703799507366131e+01
2892 1 1.32747716314133957e+01
2893 1 1.24090148915840448e+01
2894 1 1.09971585364937603e+01
2895 1 1.08105389400706127e+01
2896 1 1.13982029289203570e+01
2897 1 1.10789529739317860e+01
2898 1 1.11240710938380314e+01
2899 1 1.13972345890584101e+01
2900 1 1.12516212329866203e+01
2901 1 1.12541880448011380e+01
2902 1 1.19364037017952711e+01
2903 1 1.30446185134320913e+01
2904 1 1.31908695056963676e+01
2905 1 1.35706757070059592e+01
2906 1 1.54916045916547276e+01
2907 1 1.41387435560720967e+01
2908 1 1.45669423955576463e+01
2909 1 1.64200862708205406e+01
2910 1 1.75634473798847530e+01
2911 1 1.65992425717020673e+01
2912 1 1.60007710538872061e+01
2913 1 1.63584145064120996e+01
2914 1 1.51274730972368427e+01
2915 1 1.56460738422260697e+01
2916 1 1.60202154099819971e+01
2917 1 1.67610256351654705e+01
2918 1 1.47340439930650149e+01
2919 1 1.79110527501060623e+01
2920 1 1.35719541447300447e+01
2921 1 1.43236688455765453e+01
2922 1 1.40805409457750876e+01
2923 1 1.42057319093199403e+01
2924 1 1.60017502853475619e+01
2925 1 2.52536002005368623e+01
2926 1 1.87361104446392659e+01
2927 1 2.60723530191041206e+01
2928 1 2.38476692201546001e+01
2929 1 2.61698660663964660e+01
2930 1 2.87434534803953810e+01
2931 1 3.13407955689041557e+01
2932 1 2.88531838652279440e+01
2933 1 3.16979958686069239e+01
2934 1 2.44839846131215637e+01
2935 1 2.59125012514687221e+01
2936 1 2.20588736308906128e+01
2937 1 2.24442882750486667e+01
2938 1 1.86967468937199257e+01
2939 1 2.08802829512504395e+01
2940 1 2.38367055264994434e+01
2941 1 2.65884556463228670e+01
2942 1 3.09533046516374313e+01
2943 1 3.33137552908177739e+01
2944 1 3.31242894323966297e+01
2945 1 3.50587053720099604e+01
2946 1 3.26067603605233813e+01
2947 1 3.83673931619024202e+01
2948 1 3.26372311278578167e+01
2949 1 3.23881368934888130e+01
2950 1 3.72173451485202307e+01
2951 1 2.84776883092157966e+01
2952 1 3.37283874445696981e+01
2953 1 3.08104239468535113e+01
2954 1 3.05415753349463159e+01
2955 1 3.55355837487315398e+01
2956 1 3.56039146249604599e+01
2957 1 3.35217323970125705e+01
2958 1 3.49334973264687605e+01
2959 1 3.49240016497131833e+01
2960 1 3.61089387335485483e+01
2961 1 3.74584065421148011e+01
2962 1 3.95357200525612171e+01
2963 1 3.82052433410188073e+01
2964 1 3.77261301733549743e+01
2965 1 3.78469628526794892e+01
2966 1 3.86668835395604518e+01
2967 1 3.84770790905075728e+01
2968 1 3.87470980459448313e+01
2969 1 3.27454652868395186e+01
2970 1 2.19778455953592946e+01
2971 1 2.24053873291343706e+01
2972 1 2.59710510752445920e+01
2973 1 2.35417012436336890e+01
2974 1 2.30163386304631530e+01
2975 1 2.42731458695500422e+01
2976 1 2.27943702543785420e+01
2977 1 2.54910649639123044e+01
2978 1 2.34467025713662842e+01
2979 1 2.13160989567750754e+01
2980 1 2.58371198028459581e+01
2981 1 3.14542550694573215e+01
2982 1 2.81461965717523519e+01
2983 1 2.71543720078676039e+01
2984 1 2.92940975414701761e+01
2985 1 2.81523023776650767e+01
2986 1 2.50141520947258407e+01
2987 1 2.14207462968664579e+01
2988 1 2.39006297745529572e+01
2989 1 2.49008324734700395e+01
2990 1 2.45372441040652518e+01
2991 1 2.34156791360090857e+01
2992 1 2.05572388641204817e+01
2993 1 1.89926302506067906e+01
2994 1 2.30750124745014773e+01
2995 1 2.46064390956249355e+01
2996 1 2.67569624738995628e+01
2997 1 3.21431179042757549e+01
2998 1 2.37637905982005471e+01
2999 1 2.97926396319587603e+01
3000 1 3.36870222883927823e+01
3001 1 3.34951361517144832e+01
3002 1 3.12091170641867741e+01
3003 1 2.95618504363206895e+01
3004 1 3.03665879487473092e+01
3005 1 3.82683749514334508e+01
3006 1 3.56634366397020131e+01
3007 1 3.43218951630588478e+01
3008 1 3.68041005939074566e+01
3009 1 3.26547478226773293e+01
3010 1 3.38467834303804054e+01
3011 1 3.62027452284104712e+01
3012 1 3.06562035958328849e+01
3013 1 3.73868087241151130e+01
3014 1 3.79237213645263722e+01
3015 1 3.99786992877236145e+01
3016 1 3.93014302187128663e+01
3017 1 3.85979948710878915e+01
3018 1 3.52294594360025144e+01
3019 1 3.80735057606366709e+01
3020 1 3.85436402777539087e+01
3021 1 3.61372331847654706e+01
3022 1 3.67240445419232415e+01
3023 1 3.75852275252404411e+01
3024 1 3.69787564322187094e+01
3025 1 3.44799922112643955e+01
3026 1 3.54914895169849984e+01
3027 1 3.28746322718841881e+01
3028 1 3.31630699003275637e+01
3029 1 3.44691244694372045e+01
3030 1 3.44749637567133931e+01
3031 1 3.31448763537007594e+01
3032 1 3.18867853740419278e+01
3033 1 3.10527504128505285e+01
3034 1 3.18210812006562271e+01
3035 1 3.26566343333871103e+01
3036 1 3.21390117844710872e+01
3037 1 3.19498093608142995e+01
3038 1 3.16535708721394364e+01
3039 1 3.16207724007695390e+01
3040 1 3.12338596106030764e+01
3041 1 3.15253954681895685e+01
3042 1 3.10689748768673226e+01
3043 1 3.05026548092816441e+01
3044 1 3.13750854583185905e+01
3045 1 3.19425108415915560e+01
3046 1 3.17246080101209493e+01
3047 1 3.30697979598051077e+01
3048 1 3.22844240636778181e+01
3049 1 3.07528813959886911e+01
3050 1 3.09390860092805831e+01
3051 1 3.07618984257870167e+01
3052 1 3.06237339402857422e+01
3053 1 3.05563279559460597e+01
3054 1 3.07752310284465906e+01
3055 1 3.08509228992927227e+01
3056 1 3.11383704070902745e+01
3057 1 3.11917260978577922e+01
3058 1 3.26970466728884617e+01
3059 1 3.35867115756288186e+01
3060 1 3.26877233358565107e+01
3061 1 3.52973407441868119e+01
3062 1 3.50982996563678924e+01
3063 1 3.93156049601538911e+01
3064 1 1.91884618549096864e+01
3065 1 1.80390218776222646e+01
3066 1 1.61758449863704961e+01
3067 1 1.55309012922400971e+01
3068 1 1.68968273911676476e+01
3069 1 2.22219803805353457e+01
3070 1 2.30759418703904657e+01
3071 1 2.23786721593206757e+01
3072 1 2.26704944942249504e+01
3073 1 2.21161194890941069e+01
3074 1 3.83571601614556741e+01
3075 1 3.57186585533191661e+01
3076 1 3.93638682905929329e+01
3077 1 3.32381955623704073e+01
3078 1 3.00481334007640193e+01
3079 1 3.58542776668038528e+01
3080 1 2.88428105842375011e+01
3081 1 3.12086399514962878e+01
3082 1 3.38577348818437542e+01
3083 1 1.59694356642925310e+01
3084 1 1.66800020985276092e+01
3085 1 1.78735722335892397e+01
3086 1 2.55291992520135018e+01
3087 1 2.68786359619588993e+01
3088 1 2.48016174875320488e+01
3089 1 2.53133683697561729e+01
3090 1 2.41713365869644505e+01
3091 1 2.36794902039820521e+01
3092 1 2.18026541158651526e+01
3093 1 2.50179675664701904e+01
3094 1 2.70430891963766591e+01
3095 1 2.82074875860543735e+01
3096 1 2.73644191189913073e+01
3097 1 3.19249641024093158e+01
3098 1 2.96396431034548939e+01
3099 1 2.88138182792518336e+01
3100 1 2.50866233583844220e+01
3101 1 2.73589337866017992e+01
3102 1 2.60560554747286552e+01
3103 1 2.47667984289614864e+01
3104 1 2.22430529179032135e+01
3105 1 2.33393447708774211e+01
3106 1 2.24339784773642528e+01
3107 1 2.35846621944724113e+01
3108 1 1.91932288188759266e+01
3109 1 2.21090539867975799e+01
3110 1 2.20732987606386004e+01
3111 1 1.85481263177722759e+01
3112 1 2.04058887006439349e+01
3113 1 1.91330356971304845e+01
3114 1 1.50083582749723305e+01
3115 1 1.70944876154711594e+01
3116 1 1.63650185466166498e+01
3117 1 1.70081411615615821e+01
3118 1 2.24638832013332213e+01
3119 1 2.35726256105920200e+01
3120 1 2.64764806285325136e+01
3121 1 2.56189969464600296e+01
3122 1 2.39789208699731837e+01
3123 1 2.41906383809210332e+01
3124 1 2.82698241977958382e+01
3125 1 2.92183988828380556e+01
3126 1 3.15237083875226141e+01
3127 1 2.88489688375765461e+01
3128 1 2.17011967390037590e+01
3129 1 2.26106121307735499e+01
3130 1 3.22384621465150971e+01
3131 1 3.05268643565281614e+01
3132 1 3.15519769138393649e+01
3133 1 3.61081454533321988e+01
3134 1 3.38041130877489451e+01
3135 1 3.27916351177430911e+01
3136 1 3.42746112221530908e+01
3137 1 3.37676869332487044e+01
3138 1 3.55439983445850274e+01
3139 1 3.60901897811010954e+01
3140 1 3.18400833182026055e+01
3141 1 3.07712832588290155e+01
3142 1 3.03236582535988255e+01
3143 1 2.95672471560208088e+01
3144 1 3.23600027180303940e+01
3145 1 3.29083670646551454e+01
3146 1 3.21572530933639840e+01
3147 1 3.32155044142266007e+01
3148 1 3.25783228250552668e+01
3149 1 3.44723617955108850e+01
3150 1 3.12048880946090854e+01
3151 1 3.15211632280945935e+01
3152 1 3.07855862019925333e+01
3153 1 3.15054277358993637e+01
3154 1 3.14554920386124515e+01
3155 1 3.02531844311654616e+01
3156 1 3.00259422336846598e+01
3157 1 3.02353372052111240e+01
3158 1 3.05650153604009986e+01
3159 1 3.09674138065487980e+01
3160 1 3.02726209587148922e+01
3161 1 2.99693109915233045e+01
3162 1 3.00549191175749435e+01
3163 1 3.01919740944600257e+01
3164 1 2.97568617791525583e+01
3165 1 3.03221894203601110e+01
3166 1 3.04030589532318878e+01
3167 1 3.02710663676250391e+01
3168 1 3.05880826979015659e+01
3169 1 2.96821313374010742e+01
3170 1 2.96814963786475694e+01
3171 1 2.89715960799057761e+01
3172 1 2.92839807701451633e+01
3173 1 2.97794767761949828e+01
3174 1 3.02478182912902369e+01
3175 1 3.03880734438979871e+01
3176 1 2.97705823229389175e+01
3177 1 2.97034223894862812e+01
3178 1 2.98448018759798828e+01
3179 1 2.98633735333599120e+01
3180 1 3.42522631178853558e+01
3181 1 2.33230719933540627e+01
3182 1 2.66461834365738355e+01
3183 1 2.63815900287160403e+01
3184 1 3.49064996609948111e+01
3185 1 3.09174391961610660e+01
3186 1 3.31223497186601961e+01
3187 1 2.69490482892873935e+01
3188 1 2.17823976417296308e+01
3189 1 2.74432957711599421e+01
3190 1 2.46419697772738822e+01
3191 1 3.25629746128152249e+01
3192 1 2.47380963871232282e+01
3193 1 1.52563858468077935e+01
3194 1 3.10459542275772478e+01
3195 1 3.95301179011929946e+01
3196 1 3.93533117732842541e+01
3197 1 3.78083502286285054e+01
3198 1 1.72940872958327283e+01
3199 1 2.35712135191538650e+01
3200 1 3.16298376718895788e+01
3201 1 2.87782032950748921e+01
3202 1 3.43952490771061719e+01
3203 1 3.51017519892167513e+01
3204 1 3.79472671944485782e+01
3205 1 3.91705181491254422e+01
3206 1 3.92243518212310107e+01
3207 1 3.92333662985297451e+01
3208 1 3.33767928407468588e+01
3209 1 3.56920080994431572e+01
3210 1 3.47316881379137286e+01
3211 1 3.75867499720383691e+01
3212 1 3.44535607329765554e+01
3213 1 2.85811420925266724e+01
3214 1 2.41039822342326140e+01
3215 1 1.88993337950997038e+01
3216 1 2.13161037268550224e+01
3217 1 2.82296274687962985e+01
3218 1 2.86897159922817728e+01
3219 1 3.24055426010245924e+01
3220 1 3.57887360006706317e+01
3221 1 3.24015316029723621e+01
3222 1 3.40906002607366361e+01
3223 1 2.19079198060599296e+01
3224 1 2.15403970194525485e+01
3225 1 2.60753573334078794e+01
3226 1 2.70300450818651186e+01
3227 1 2.05468179370166766e+01
3228 1 2.97411719154695824e+01
3229 1 2.01438620683832035e+01
3230 1 1.89913194558637777e+01
3231 1 2.02298157088271786e+01
3232 1 1.86805021255657167e+01
3233 1 1.84824962627004084e+01
3234 1 1.84873966593027461e+01
3235 1 1.80275872194462501e+01
3236 1 1.86244401454047974e+01
3237 1 1.87774176328379987e+01
3238 1 1.51125167833462104e+01
3239 1 1.12286846025005467e+01
3240 1 2.15391258598529269e+01
3241 1 1.46246666552721027e+01
3242 1 2.15055932918548081e+01
3243 1 1.89023403549941591e+01
3244 1 1.56819113381685842e+01
3245 1 1.97680831894811568e+01
3246 1 3.58893624418512900e+01
3247 1 3.40665672250724683e+01
3248 1 2.78578991378769416e+01
3249 1 3.63225477638761518e+01
3250 1 1.70852380020502963e+01
3251 1 1.27962090540579005e+01
3252 1 1.71222230644963815e+01
3253 1 1.77277469181847493e+01
3254 1 1.68389187395715716e+01
3255 1 1.82326124560905640e+01
3256 1 2.25730142572568440e+01
3257 1 2.41533317523382003e+01
3258 1 3.29910119644694504e+01
3259 1 1.46777938800469396e+01
3260 1 1.55255080058933501e+01
3261 1 2.00157332013754079e+01
3262 1 1.89784403805469886e+01
3263 1 1.99453616132030049e+01
3264 1 2.02720891587367298e+01
3265 1 1.08035466736386958e+01
3266 1 1.22552320004139705e+01
3267 1 1.47245510756944480e+01
3268 1 1.37147615511779684e+01
3269 1 1.23158250225938577e+01
3270 1 1.73057443768267269e+01
3271 1 1.58018869997162223e+01
3272 1 1.45348057604387311e+01
3273 1 1.49634112813931601e+01
3274 1 1.28466301635169664e+01
3275 1 1.36479991934302554e+01
3276 1 1.65840674052408659e+01
3277 1 1.56134873017844082e+01
3278 1 1.51921207791244193e+01
3279 1 1.41151287122583522e+01
3280 1 1.49504630674754999e+01
3281 1 1.48990686324093531e+01
3282 1 1.45996781987184967e+01
3283 1 1.49173149159904810e+01
3284 1 1.47473845492206745e+01
3285 1 1.59329511476662695e+01
3286 1 1.53858787570031783e+01
3287 1 1.53630625678986590e+01
3288 1 1.74143152288432184e+01
3289 1 1.63307808050477981e+01
3290 1 1.51206116670969575e+01
3291 1 1.62300395464275269e+01
3292 1 1.48211182817906852e+01
3293 1 1.19123425423524125e+01
3294 1 1.32362004938671181e+01
3295 1 1.75144064739963738e+01
3296 1 1.72080116714206213e+01
3297 1 1.83293039938475175e+01
3298 1 1.78861404622966234e+01
3299 1 1.73129624046458375e+01
3300 1 1.74607046540493229e+01
3301 1 1.67325164151344481e+01
3302 1 1.64654173716900054e+01
3303 1 1.28284716686825195e+01
3304 1 1.37215355968838519e+01
3305 1 1.37027645069004240e+01
3306 1 1.24572122168966928e+01
3307 1 1.28534572366580200e+01
3308 1 1.35797723626536495e+01
3309 1 1.26413915077814316e+01
3310 1 1.24834792744568137e+01
3311 1 1.24553960119539209e+01
3312 1 1.20224065117841885e+01
3313 1 1.20832440017851201e+01
3314 1 1.19924190052874771e+01
3315 1 1.17485850699858947e+01
3316 1 1.30485479531951718e+01
3317 1 1.54183820896424155e+01
3318 1 1.39310349777024314e+01
3319 1 1.43581426553981597e+01
3320 1 1.31760282605091543e+01
3321 1 1.29496041960691137e+01
3322 1 1.41088113004327642e+01
3323 1 1.36667455643254598e+01
3324 1 1.42439953747015782e+01
3325 1 1.24973153301945370e+01
3326 1 1.30464094767465877e+01
3327 1 1.28940029536116008e+01
3328 1 1.45892304179199233e+01
3329 1 1.81517518619220581e+01
3330 1 1.80382173301067468e+01
3331 1 1.79554644124780154e+01
3332 1 1.77382542757871917e+01
3333 1 1.64032732460037529e+01
3334 1 1.82700089015630489e+01
3335 1 1.96688497854544515e+01
3336 1 1.95350954573669604e+01
3337 1 1.86941012213272657e+01
3338 1 1.86326986982829332e+01
3339 1 1.97231064075618256e+01
3340 1 1.97282175126834289e+01
3341 1 1.98181148020418973e+01
3342 1 1.97372822350015404e+01
3343 1 1.26113664810779333e+01
3344 1 1.34153996514319349e+01
3345 1 6.27408330177018136e+00
3346 1 8.98619070109650586e+00
3347 1 6.58266403325943728e+00
3348 1 9.30350668009119630e+00
3349 1 1.01616571484688318e+01
3350 1 7.80323508828237156e+00
3351 1 1.69621782115147965e+01
3352 1 1.86080257109144185e+01
3353 1 1.58356008615364612e+01
3354 1 1.78643722471492588e+01
3355 1 1.27516093404736921e+01
3356 1 5.93559814382755313e+00
3357 1 4.44526004735598512e+00
3358 1 1.07937624767519331e+01
3359 1 5.20168549359780474e+00
3360 1 9.48231153326042353e+00
3361 1 2.24807030307995461e+01
3362 1 1.86658033675671895e+01
3363 1 2.03562249084955553e+01
3364 1 2.26890046712485969e+01
3365 1 2.42229072912857006e+01
3366 1 2.53943558460914183e+01
3367 1 2.49147321903422210e+01
3368 1 2.47361968341484655e+01
3369 1 2.65223721517592068e+01
3370 1 2.70502803252267121e+01
3371 1 1.04658983802646066e+01
3372 1 1.01949194010101252e+01
3373 1 1.07678927282029875e+01
3374 1 1.01089392598058598e+01
3375 1 1.28862981825080354e+01
3376 1 1.29681851563269195e+01
3377 1 1.28956354298651714e+01
3378 1 1.28746007385972412e+01
3379 1 2.16944377697984230e+01
3380 1 1.87768732474645219e+01
3381 1 1.59543575075119772e+01
3382 1 1.58142800771833230e+01
3383 1 1.55825247087433212e+01
3384 1 1.58331667133389029e+01
3385 1 1.56235966937916277e+01
3386 1 1.55563335381410610e+01
3387 1 1.55199902912698402e+01
3388 1 1.56430004404675387e+01
3389 1 1.63170318456471151e+01
3390 1 1.65443047458031494e+01
3391 1 1.67168621738999796e+01
3392 1 1.73278320794140335e+01
3393 1 1.57859851516952965e+01
3394 1 1.65930404535312555e+01
3395 1 1.64802835541976975e+01
3396 1 1.73304441314761100e+01
3397 1 1.60532468270807662e+01
3398 1 1.58179368973886767e+01
3399 1 1.60888829993318581e+01
3400 1 1.51363578675089556e+01
3401 1 1.46542711132718679e+01
3402 1 1.80807939774903694e+01
3403 1 1.78220434270164709e+01
3404 1 1.68589790980444505e+01
3405 1 1.36754497856473023e+01
3406 1 5.23972580450250369e+00
3407 1 4.64776752257124759e+00
3408 1 7.51643628350462922e+00
3409 1 1.00040962906922744e+01
3410 1 2.93986537506768464e+01
3411 1 5.46479968057762733e+00
3412 1 1.20863987249137725e+01
3413 1 7.05698539723329255e+00
3414 1 1.94908703109232029e+01
3415 1 1.91606314475769466e+01
3416 1 1.72221664148507507e+01
3417 1 1.95082075142993503e+01
3418 1 1.77628475187939294e+01
3419 1 1.52521432338293010e+01
3420 1 1.48441686240072794e+01
3421 1 1.24145735921006217e+01
3422 1 1.35576202483215891e+01
3423 1 1.27153482419726949e+01
3424 1 1.33010491189453255e+01
3425 1 1.17695592963538047e+01
3426 1 1.21243477312252850e+01
3427 1 1.14005307781526906e+01
3428 1 1.13952286596568726e+01
3429 1 1.29868148517483242e+01
3430 1 1.32335657873185273e+01
3431 1 1.46571535849169550e+01
3432 1 1.21337519438543424e+01
3433 1 1.13616468741091072e+01
3434 1 1.14535553599765265e+01
3435 1 1.24815767715368438e+01
3436 1 1.19904369170223521e+01
3437 1 1.20447286583214250e+01
3438 1 1.16466222122960534e+01
3439 1 1.28082503094772377e+01
3440 1 1.51674661472849159e+01
3441 1 1.33003865380674409e+01
3442 1 1.67931917743623629e+01
3443 1 1.23655735545563275e+01
3444 1 1.35571919488325481e+01
3445 1 1.22663610304981070e+01
3446 1 1.28332451051668261e+01
3447 1 1.23096159870751212e+01
3448 1 1.55547995896609184e+01
3449 1 1.59785454255229773e+01
3450 1 1.68903826741517129e+01
3451 1 1.82978624413926383e+01
3452 1 1.97877022580151163e+01
3453 1 1.41668843566460492e+01
3454 1 1.32060803501558652e+01
3455 1 1.81572206457636867e+01
3456 1 2.02288836119890121e+01
3457 1 1.25167387465210727e+01
3458 1 1.30335171482006782e+01
3459 1 1.22410663400604811e+01
3460 1 1.20563801095824381e+01
3461 1 1.19980868950600303e+01
3462 1 1.27914826864041906e+01
3463 1 1.34215468222255527e+01
3464 1 1.31862623905098815e+01
3465 1 1.24949034272285502e+01
3466 1 1.24818785472152776e+01
3467 1 1.26678521497253556e+01
3468 1 1.21554370578173785e+01
3469 1 1.26304439648983315e+01
3470 1 1.13697383790816566e+01
3471 1 1.17398688609669986e+01
3472 1 1.23354912584224738e+01
3473 1 1.32794153809365678e+01
3474 1 1.64257187262017403e+01
3475 1 1.90405045768523031e+01
3476 1 2.02504441873671723e+01
3477 1 2.06911610275867233e+01
3478 1 2.15438782201127133e+01
3479 1 1.75007756940626429e+01
3480 1 1.21699466487948822e+01
3481 1 1.19925536582195669e+01
3482 1 1.24867209280557443e+01
3483 1 1.29281191995709470e+01
3484 1 1.21802257592858698e+01
3485 1 1.21008818814359511e+01
3486 1 1.80984851247589553e+01
3487 1 1.71928847859435052e+01
3488 1 3.40814020332343262e+01
3489 1 2.72962537316761100e+01
3490 1 2.75541696575277300e+01
3491 1 2.72593301314735683e+01
3492 1 2.69065665105557983e+01
3493 1 2.69510909958892242e+01
3494 1 2.70597962866829462e+01
3495 1 2.70202877556210446e+01
3496 1 2.70443292741210399e+01
3497 1 2.69340179540842399e+01
3498 1 2.69140963037757039e+01
3499 1 2.76496776680536342e+01
3500 1 2.73600633193058194e+01
3501 1 1.20074182773353471e+01
3502 1 1.11140215246358096e+01
3503 1 1.54062726018326703e+01
3504 1 1.38338872483116671e+01
3505 1 1.42376119087665138e+01
3506 1 1.58509574558259541e+01
3507 1 1.62783038914328131e+01
3508 1 1.40583554767843442e+01
3509 1 1.57718157194853905e+01
3510 1 1.60616607074152498e+01
3511 1 1.82061276290822924e+01
3512 1 2.19815567275560966e+01
3513 1 2.06717557870374016e+01
3514 1 1.83010630980948044e+01
3515 1 1.78985833554446216e+01
3516 1 1.92196928717962372e+01
3517 1 1.84439486999398383e+01
3518 1 1.78091534712582664e+01
3519 1 1.84840384925985148e+01
3520 1 1.87624287349337884e+01
3521 1 1.77779231684406334e+01
3522 1 1.89794041055257594e+01
3523 1 1.82919515693325749e+01
3524 1 1.84703445037347294e+01
3525 1 1.91979809407027027e+01
3526 1 1.78549059246659603e+01
3527 1 1.92449744161029521e+01
3528 1 1.94546250864869279e+01
3529 1 1.76624764323147971e+01
3530 1 1.85381579527372544e+01
3531 1 1.81957845573095653e+01
3532 1 1.77598699880593998e+01
3533 1 1.38975784794670343e+01
3534 1 1.56934752848428349e+01
3535 1 1.63866823417788758e+01
3536 1 1.67588682537230653e+01
3537 1 1.71772259418662152e+01
3538 1 1.71742680987895611e+01
3539 1 1.76429020708533741e+01
3540 1 1.73604272923089411e+01
3541 1 1.94168502529043998e+01
3542 1 2.05098299297059974e+01
3543 1 1.92588542492251769e+01
3544 1 1.86741388635051777e+01
3545 1 2.16250713724602264e+01
3546 1 1.84552305618289552e+01
3547 1 1.96788974781889650e+01
3548 1 1.76119178518966280e+01
3549 1 1.74057009151559754e+01
3550 1 1.79141507952152992e+01
3551 1 1.79071037682701650e+01
3552 1 2.10442465478647769e+01
3553 1 1.89954156102349856e+01
3554 1 1.82564302701866410e+01
3555 1 1.83390634664823509e+01
3556 1 1.87419851726560296e+01
3557 1 1.84175371214065002e+01
3558 1 1.74700756370013721e+01
3559 1 1.83847327319593923e+01
3560 1 1.63033859834055868e+01
3561 1 1.59591090116227825e+01
3562 1 1.73824451228963177e+01
3563 1 1.52060045856642159e+01
3564 1 1.43759532611509329e+01
3565 1 2.02145011770689109e+01
3566 1 1.74732762336945946e+01
3567 1 1.71767999247974004e+01
3568 1 2.01929696218049877e+01
3569 1 1.84545620987402792e+01
3570 1 2.00431189178769102e+01
3571 1 1.88590118312375807e+01
3572 1 1.88152758885102536e+01
3573 1 1.92864987069996587e+01
3574 1 2.06325110431422161e+01
3575 1 1.81589283069113243e+01
3576 1 2.17540907020580221e+01
3577 1 2.13345705901015918e+01
3578 1 1.95939797641376998e+01
3579 1 2.00556425736314452e+01
3580 1 2.18362576126722772e+01
3581 1 3.49472343694562113e+01
3582 1 2.68669064725869831e+01
3583 1 2.32629955866341334e+01
3584 1 2.30274955635287206e+01
3585 1 2.57834849661116863e+01
3586 1 3.14879357257834656e+01
3587 1 2.91419709279726789e+01
3588 1 3.79270115004895061e+01
3589 1 3.37740060066389418e+01
3590 1 3.88779603499750408e+01
3591 1 3.06615486873912957e+01
3592 1 3.11828869194461049e+01
3593 1 4.73445644655807385e+01
3594 1 4.24057278919884766e+01
3595 1 4.38800948053168298e+01
3596 1 4.43103623255432950e+01
3597 1 4.47577207223867219e+01
3598 1 3.99673295070616206e+01
3599 1 3.55206888144213195e+01
3600 1 3.67596180601399496e+01
3601 1 2.99165516925006649e+01
3602 1 2.44340377000518032e+01
3603 1 3.98292420193191248e+01
3604 1 3.38888856332443140e+01
3605 1 3.94769072269989749e+01
3606 1 3.50283576955708256e+01
3607 1 3.02613961371001778e+01
3608 1 3.21022491971780752e+01
3609 1 2.92229733825460798e+01
3610 1 3.04755972594253777e+01
3611 1 3.22481195803347305e+01
3612 1 3.19245476632746161e+01
3613 1 2.57171190283583009e+01
3614 1 2.86360552740379255e+01
3615 1 3.04766977416192972e+01
3616 1 2.48603817353687084e+01
3617 1 2.76666637499590031e+01
3618 1 2.70071469633735965e+01
3619 1 2.66193437737998515e+01
3620 1 2.22447965034535251e+01
3621 1 2.46886303795319115e+01
3622 1 2.24858813766691483e+01
3623 1 1.63037181658757184e+01
3624 1 1.92012667746677756e+01
3625 1 1.90085748078389400e+01
3626 1 2.14667888780146825e+01
3627 1 2.46801865046040056e+01
3628 1 2.53263654095787878e+01
3629 1 2.32121951956472934e+01
3630 1 2.12017626204227554e+01
3631 1 2.25457425405670548e+01
3632 1 1.95913881675876524e+01
3633 1 2.12355538110778603e+01
3634 1 1.93695888990812826e+01
3635 1 1.69364149140296334e+01
3636 1 2.72191328202589062e+01
3637 1 2.69348372069077477e+01
3638 1 2.61300500312544450e+01
3639 1 2.59058667987675122e+01
3640 1 2.63849688647102596e+01
3641 1 2.45846169329007367e+01
3642 1 2.40056114325821923e+01
3643 1 2.55623087906308299e+01
3644 1 2.52543561373139802e+01
3645 1 2.50848094819701544e+01
3646 1 2.54977836189973388e+01
3647 1 2.40269345171828093e+01
3648 1 2.29806586134110660e+01
3649 1 2.15495074466872047e+01
3650 1 2.21255708691831074e+01
3651 1 2.28583656889302702e+01
3652 1 2.18832853069338569e+01
3653 1 2.37545086941052439e+01
3654 1 2.51173578687149366e+01
3655 1 2.23426103743722670e+01
3656 1 2.47483929248471917e+01
3657 1 2.56846281618642642e+01
3658 1 2.66960355017970201e+01
3659 1 2.57932000695846959e+01
3660 1 2.35416744430920275e+01
3661 1 2.48341144822967621e+01
3662 1 2.49818011067838484e+01
3663 1 2.28876496710251836e+01
3664 1 2.55514459598277739e+01
3665 1 2.80110995560040905e+01
3666 1 2.88899572739573145e+01
3667 1 2.75864530946109845e+01
3668 1 2.61612143960429826e+01
3669 1 2.23762606199700755e+01
3670 1 2.54970850172276897e+01
3671 1 2.36613157914475103e+01
3672 1 2.70469998641936193e+01
3673 1 2.71735945592393975e+01
3674 1 2.96880180067947315e+01
3675 1 2.97344178052935284e+01
3676 1 2.86744378539046814e+01
3677 1 2.90727992125772445e+01
3678 1 3.00921606271363054e+01
3679 1 2.00335424669882229e+01
3680 1 2.80576877998175291e+01
3681 1 1.97382279438978401e+01
3682 1 1.65320684891997836e+01
3683 1 1.96641981773639536e+01
3684 1 2.25047025688063087e+01
3685 1 2.37719445467328647e+01
3686 1 1.94600783153954175e+01
3687 1 2.05887426770444684e+01
3688 1 2.16732992229077368e+01
3689 1 2.08467741682209677e+01
3690 1 2.05382656318225898e+01
3691 1 1.79310221185723826e+01
3692 1 1.69739690388532587e+01
3693 1 1.64656441290906201e+01
3694 1 1.60281810358895918e+01
3695 1 1.46272918444143318e+01
3696 1 1.42899726027702236e+01
3697 1 1.49968741067362288e+01
3698 1 1.51706972753375648e+01
3699 1 1.34808073265146504e+01
3700 1 1.35773119749298026e+01
3701 1 1.64509360983496720e+01
3702 1 3.09761082604542501e+01
3703 1 3.19091282300118024e+01
3704 1 2.79667643465055917e+01
3705 1 2.63547050720686578e+01
3706 1 3.04561477647965901e+01
3707 1 3.14853818933909189e+01
3708 1 3.72971183160585085e+01
3709 1 3.58192849169823475e+01
3710 1 4.52402611188159085e+01
3711 1 4.28057775347356397e+01
3712 1 4.40572140298100976e+01
3713 1 4.97643942443624496e+01
3714 1 5.44689820751321747e+01
3715 1 5.30098155631840768e+01
3716 1 5.02072453702594288e+01
3717 1 4.72019421443151757e+01
3718 1 4.62763916834647091e+01
3719 1 4.97320344992555832e+01
3720 1 4.26918813100404151e+01
3721 1 2.65776258002599484e+01
3722 1 2.44510573351791649e+01
3723 1 2.38324743420437670e+01
3724 1 2.23096879772002161e+01
3725 1 2.37663547278115175e+01
3726 1 1.78345619815350886e+01
3727 1 1.80487511880901188e+01
3728 1 1.59739657679640139e+01
3729 1 1.70553373372401502e+01
3730 1 1.63822916363181790e+01
3731 1 1.71383530988042168e+01
3732 1 1.65676557628509684e+01
3733 1 1.62763954986246127e+01
3734 1 1.94899564979843554e+01
3735 1 2.08984943400605907e+01
3736 1 1.92206698763691790e+01
3737 1 1.98938347402079181e+01
3738 1 1.75616770165381553e+01
3739 1 1.73961752481812830e+01
3740 1 1.95811477161206149e+01
3741 1 1.57011145495585716e+01
3742 1 1.38817661703496906e+01
3743 1 1.51874967983281035e+01
3744 1 1.43327927274673179e+01
3745 1 1.84099898390210193e+01
3746 1 1.58265753443730333e+01
3747 1 1.80301577351558713e+01
3748 1 2.12807932283987569e+01
3749 1 1.58872091753532114e+01
3750 1 1.90931628493121366e+01
3751 1 2.21013813638245402e+01
3752 1 2.59389604936017300e+01
3753 1 1.68749783845478483e+01
3754 1 3.38555252821108255e+01
3755 1 3.63904729450845537e+01
3756 1 3.77957258868263750e+01
3757 1 3.04158985804429314e+01
3758 1 1.75777539877834528e+01
3759 1 1.63589569350729427e+01
3760 1 1.43046622714515870e+01
3761 1 1.42910383609663079e+01
3762 1 1.52738158959212118e+01
3763 1 1.56658282173392358e+01
3764 1 1.69867216010483233e+01
3765 1 1.57527183482172841e+01
3766 1 1.55663569540098781e+01
3767 1 1.44744397708283969e+01
3768 1 1.65930644670309810e+01
3769 1 1.36251514126684086e+01
3770 1 1.36285236521196342e+01
3771 1 1.34565561978600687e+01
3772 1 1.40593655564751838e+01
3773 1 1.45577625541580797e+01
3774 1 1.50097989004428047e+01
3775 1 1.51804346370493821e+01
3776 1 1.56841115613273878e+01
3777 1 1.46650594421872533e+01
3778 1 1.52014785795269027e+01
3779 1 1.53855326184203189e+01
3780 1 1.58850023000673346e+01
3781 1 1.42849870121316052e+01
3782 1 1.49343960367579474e+01
3783 1 1.80568084486225580e+01
3784 1 1.92223057498363872e+01
3785 1 1.91628264075396899e+01
3786 1 1.83119311305741235e+01
3787 1 1.72734587050611132e+01
3788 1 1.90020498293169808e+01
3789 1 1.84670093384749450e+01
3790 1 1.77013203916633337e+01
3791 1 2.02421104989056388e+01
3792 1 1.80369097970536849e+01
3793 1 1.80334275297064472e+01
3794 1 1.88348646347126270e+01
3795 1 1.67161222476615983e+01
3796 1 5.47757358925977016e+01
3797 1 5.59655691766764249e+01
3798 1 1.81486466131277062e+01
3799 1 1.48799161642007114e+01
3800 1 3.47705877423481695e+01
3801 1 3.80540726360225463e+01
3802 1 3.36777690537775243e+01
3803 1 3.45638144867861428e+01
3804 1 2.57200765434571927e+01
3805 1 2.47801351593089159e+01
3806 1 2.35802964216815916e+01
3807 1 2.38691948049030387e+01
3808 1 2.65161523948355864e+01
3809 1 2.51977100580850362e+01
3810 1 2.87970073369856721e+01
3811 1 2.05362607082762310e+01
3812 1 2.01687820063495842e+01
3813 1 1.48779971050293440e+01
3814 1 1.77246162263170746e+01
3815 1 1.82975617061673432e+01
3816 1 1.13991392705238148e+01
3817 1 1.62663825804557760e+01
3818 1 1.63538384930283272e+01
3819 1 1.88220050535094607e+01
3820 1 1.67471819817775973e+01
3821 1 1.31196239140420605e+01
3822 1 1.42639638817122023e+01
3823 1 1.80555952281774950e+01
3824 1 1.83600836081430927e+01
3825 1 1.75911684845720693e+01
3826 1 1.68354331393036638e+01
3827 1 1.81394948442478068e+01
3828 1 1.78997039573342640e+01
3829 1 1.36469405644246642e+01
3830 1 1.28836774419392448e+01
3831 1 1.13096871620469592e+01
3832 1 1.19524592383359458e+01
3833 1 1.54422774790982604e+01
3834 1 1.50741423604742160e+01
3835 1 1.76825601839261743e+01
3836 1 1.97196370754544006e+01
3837 1 1.82639975151769036e+01
3838 1 1.86850110936509282e+01
3839 1 1.80818199857196724e+01
3840 1 1.67580217721296236e+01
3841 1 1.63393247908355264e+01
3842 1 1.96150575996955716e+01
3843 1 2.12250810273046859e+01
3844 1 1.68730829197499794e+01
3845 1 1.80339642671956604e+01
3846 1 2.02705233562344418e+01
3847 1 2.34752390367582606e+01
3848 1 2.46535319820125913e+01
3849 1 2.11045684246694947e+01
3850 1 2.02980581400454305e+01
3851 1 1.63649758887076118e+01
3852 1 1.67772359472093697e+01
3853 1 1.63435501151110785e+01
3854 1 1.67093166026499027e+01
3855 1 2.80881302003594513e+01
3856 1 2.27959970723752896e+01
3857 1 3.82665477224871537e+01
3858 1 3.76519095884230381e+01
3859 1 3.70185768042488590e+01
3860 1 3.98560250124777014e+01
3861 1 4.00652051428424585e+01
3862 1 3.95400433316889917e+01
3863 1 3.80490087579852059e+01
3864 1 3.95094760236260498e+01
3865 1 3.82969156509121547e+01
3866 1 4.07285482889237471e+01
3867 1 4.05837266445548863e+01
3868 1 3.91239157111403344e+01
3869 1 3.99896593044503206e+01
3870 1 3.74846810641916903e+01
3871 1 3.45782050861756858e+01
3872 1 3.48698720092382999e+01
3873 1 3.65203104632044955e+01
3874 1 3.46883019625948137e+01
3875 1 3.75621404069672664e+01
3876 1 3.89874628832513110e+01
3877 1 3.64258504666656506e+01
3878 1 3.82689325205570157e+01
3879 1 3.72181202088610590e+01
3880 1 3.27039416094842892e+01
3881 1 3.59339997497962571e+01
3882 1 3.41706111522099292e+01
3883 1 3.04132890065660035e+01
3884 1 2.74706307051246199e+01
3885 1 3.41970395800356641e+01
3886 1 3.87678498790556176e+01
3887 1 2.93255241071044175e+01
3888 1 3.34905220745628895e+01
3889 1 2.85899720324208637e+01
3890 1 3.77655661965244320e+01
3891 1 3.99142156960688794e+01
3892 1 3.05334349885098177e+01
3893 1 2.95724785344988810e+01
3894 1 2.99909900365678581e+01
3895 1 3.00704126979602293e+01
3896 1 2.99342713948430017e+01
3897 1 3.12752508593054763e+01
3898 1 3.08247752456163973e+01
3899 1 1.93641514393519181e+01
3900 1 3.54194227617049719e+01
3901 1 3.24793261884713615e+01
3902 1 3.77904733635446490e+01
3903 1 3.69963288180639935e+01
3904 1 3.78159504109175160e+01
3905 1 4.03360158682203860e+01
3906 1 4.21032610417780546e+01
3907 1 4.08913597045648345e+01
3908 1 4.03975834067259356e+01
3909 1 3.67026840607167202e+01
3910 1 4.06740420905021551e+01
3911 1 3.70346111154506445e+01
3912 1 3.59644478908059142e+01
3913 1 3.65145654314129828e+01
3914 1 3.72786096196160344e+01
3915 1 3.72708805215276229e+01
3916 1 3.67794593709614475e+01
3917 1 3.64965505541104847e+01
3918 1 3.55713501907332770e+01
3919 1 3.82237463889581193e+01
3920 1 3.89547220558660072e+01
3921 1 3.35034839480682223e+01
3922 1 3.43336036806998095e+01
3923 1 3.12437385963145999e+01
3924 1 2.84021230273641443e+01
3925 1 3.49610339868266848e+01
3926 1 3.64922430425921078e+01
3927 1 3.12615253879738546e+01
3928 1 3.65722786305978715e+01
3929 1 3.34594199109660551e+01
3930 1 3.69880438544795354e+01
3931 1 3.65188929713005592e+01
3932 1 3.12897381826320462e+01
3933 1 3.67009142360769047e+01
3934 1 2.13271291725299150e+01
3935 1 3.59266349122536894e+01
3936 1 1.53956327199838086e+01
3937 1 1.14707128012165054e+01
3938 1 1.19008744137871929e+01
3939 1 1.12812009573540788e+01
3940 1 1.19314757443569857e+01
3941 1 1.29795442241010885e+01
3942 1 1.13380615483862037e+01
3943 1 2.11893388837880039e+01
3944 1 2.67467470936300451e+01
3945 1 2.45055580704880001e+01
3946 1 2.88153095257979857e+01
3947 1 2.48802351053276105e+01
3948 1 2.35040286515250685e+01
3949 1 2.68047486773898171e+01
3950 1 2.49137094512630135e+01
3951 1 2.30239278935670661e+01
3952 1 2.73066494058114273e+01
3953 1 3.00603880150640634e+01
3954 1 3.33924769351269148e+01
3955 1 2.18022136844424459e+01
3956 1 2.31883504158219402e+01
3957 1 2.30081401648542574e+01
3958 1 3.28273018370417020e+01
3959 1 4.12753248024534258e+01
3960 1 3.63653449433190445e+01
3961 1 2.92783172029069014e+01
3962 1 4.67161791886126423e+01
3963 1 4.50988279731242940e+01
3964 1 4.80769514796470503e+01
3965 1 4.47569210020600110e+01
3966 1 3.80727724267389789e+01
3967 1 4.21447291314037074e+01
3968 1 4.31164715396248397e+01
3969 1 3.37687279914473137e+01
3970 1 4.65977515599290086e+01
3971 1 5.11806131512390436e+01
3972 1 3.05694530636154624e+01
3973 1 2.84229491486841823e+01
3974 1 3.67732485704875671e+01
3975 1 3.43764095454492846e+01
3976 1 2.23502144849740851e+01
3977 1 2.27429826692141788e+01
3978 1 6.53891058734058905e+00
3979 1 7.66895111583755451e+00
3980 1 7.41753343439796087e+00
3981 1 6.10650932076381370e+00
3982 1 5.97228568219588674e+00
3983 1 1.61719535991450094e+01
3984 1 3.18260981346780270e+01
3985 1 1.15227536162508208e+01
3986 1 2.54729234493023178e+01
3987 1 2.51683580086715679e+01
3988 1 2.50837879880229799e+01
3989 1 2.40145096603983141e+01
3990 1 2.20360746735939443e+01
3991 1 1.99747669879833722e+01
3992 1 2.02236938255648937e+01
3993 1 2.10017433890325016e+01
3994 1 1.85849227138435324e+01
3995 1 1.84472299922810308e+01
3996 1 1.91973460924646027e+01
3997 1 1.85586795641033540e+01
3998 1 1.94758068019136559e+01
3999 1 1.90647263437660754e+01
4000 1 1.97566464417606547e+01
4001 1 1.89193014084752349e+01
4002 1 2.91699231017780320e+01
4003 1 3.01263218984723551e+01
4004 1 2.80326207936167151e+01
4005 1 4.75162764923025520e+01
4006 1 2.45950126617388527e+01
4007 1 2.09231419712343829e+01
4008 1 1.91772913849111184e+01
4009 1 2.64700035489655932e+01
4010 1 3.58053359999720158e+01
4011 1 4.33537970279776843e+01
4012 1 4.10287174108388086e+01
4013 1 3.42731055637042914e+01
4014 1 9.82129798389707709e+00
4015 1 9.71049068120009906e+00
4016 1 8.10257025385166507e+00
4017 1 9.91544712732147637e+00
4018 1 1.10246908022440753e+01
4019 1 9.87031254594032781e+00
4020 1 1.11043029669367819e+01
4021 1 1.16144661246132550e+01
4022 1 1.36805152441343658e+01
4023 1 1.45546466154854315e+01
4024 1 1.47768944339922115e+01
4025 1 1.42993096967179234e+01
4026 1 1.41995794528137420e+01
4027 1 1.38996777131123697e+01
4028 1 1.43704538405748838e+01
4029 1 6.95048072572397757e+00
4030 1 7.60471430930928083e+00
4031 1 6.38278088539870136e+00
4032 1 4.04565825018892156e+00
4033 1 4.12698913778742860e+00
4034 1 2.71505535837999155e+01
4035 1 2.90383457979321484e+01
4036 1 2.53434069152276322e+01
4037 1 2.73596297453705262e+01
4038 1 3.46979946313016896e+01
4039 1 3.47567792244199012e+01
4040 1 3.46018597220040434e+01
4041 1 3.32229223772467819e+01
4042 1 3.43499589933797296e+01
4043 1 3.63899776367191237e+01
4044 1 3.65595500979006189e+01
4045 1 3.82637246747619244e+01
4046 1 3.69979453274282335e+01
4047 1 3.66535014937781867e+01
4048 1 3.32130959450337002e+01
4049 1 4.30680859075873670e+01
4050 1 3.22590461792866776e+01
4051 1 3.27716926406185678e+01
4052 1 3.14261846884251881e+01
4053 1 2.75736625620909486e+01
4054 1 2.82962327094572856e+01
4055 1 2.88387617711938056e+01
4056 1 2.86828938147444141e+01
4057 1 2.82857415788475421e+01
4058 1 3.10591028126199227e+01
4059 1 3.11445970026399976e+01
4060 1 2.92235991170956098e+01
4061 1 2.72409840154296781e+01
4062 1 2.74020893449210377e+01
4063 1 3.14435811205799389e+01
4064 1 2.99048172154889293e+01
4065 1 2.98275117409753712e+01
4066 1 3.16814987137306296e+01
4067 1 2.88037849998139599e+01
4068 1 2.64334103510528884e+01
4069 1 2.51275889247831614e+01
4070 1 2.46249656104876991e+01
4071 1 3.16695312675233716e+01
4072 1 3.14558134024290830e+01
4073 1 3.31793250259928456e+01
4074 1 3.03778199058545688e+01
4075 1 3.22380260607343132e+01
4076 1 2.77513890593228041e+01
4077 1 3.52708976514017607e+01
4078 1 9.64853229684554670e+00
4079 1 3.31880053953406531e+01
4080 1 2.52469243942970145e+01
4081 1 2.63159265998195657e+01
4082 1 2.82307467820487901e+01
4083 1 2.82965056895172999e+01
4084 1 2.48055810563873465e+01
4085 1 2.61627080483955439e+01
4086 1 2.06563612772799949e+01
4087 1 1.87107779988147200e+01
4088 1 1.70186609361585610e+01
4089 1 7.61328366243492560e+00
4090 1 2.84121203110585228e+01
4091 1 1.13421699447030040e+01
4092 1 9.62345548827126152e+00
4093 1 8.71093950665260230e+00
4094 1 1.00132972211938345e+01
4095 1 9.64054338156851642e+00
4096 1 1.05688711899401575e+01
4097 1 8.23504805298813736e+00
4098 1 7.48719639567884343e+00
4099 1 7.19168009806636199e+00
4100 1 7.68753144519762532e+00
4101 1 8.78452098870739917e+00
4102 1 9.81551939919690852e+00
4103 1 1.01917366750148908e+01
4104 1 8.98477454161782951e+00
4105 1 1.11457188233742173e+01
4106 1 1.12738158776007928e+01
4107 1 8.98949777689708007e+00
4108 1 6.64600649789315145e+00
4109 1 1.27110130682908462e+01
4110 1 1.22008859782411943e+01
4111 1 2.49084919139159737e+01
4112 1 1.59347896142790475e+01
4113 1 1.57900919441659298e+01
4114 1 1.69737082046630015e+01
4115 1 1.60683963689815705e+01
4116 1 1.64212362233557165e+01
4117 1 1.57551054017207175e+01
4118 1 1.51734775970563955e+01
4119 1 1.52933548986045853e+01
4120 1 1.51433077472181328e+01
4121 1 1.55063623524846239e+01
4122 1 1.52279210856837803e+01
4123 1 1.93428752857294270e+01
4124 1 1.92911071183235272e+01
4125 1 1.77148389202177086e+01
4126 1 2.15693941884882356e+01
4127 1 1.48792599328528858e+01
4128 1 1.47558374099916989e+01
4129 1 1.52044931976783229e+01
4130 1 1.54613281808771958e+01
4131 1 1.55952618435639394e+01
4132 1 1.54414263001291179e+01
4133 1 3.88042559682817512e+01
4134 1 3.51919574515342646e+01
4135 1 3.38484559644139722e+01
4136 1 3.68815709376818077e+01
4137 1 3.89732960664667374e+01
4138 1 2.88675385063523251e+01
4139 1 1.41071627044279566e+01
4140 1 2.41052635839156828e+01
4141 1 1.85681858290048538e+01
4142 1 2.03534455192241843e+01
4143 1 6.44493491796392259e+00
4144 1 1.28836479609215750e+01
4145 1 4.58411858459364030e+00
4146 1 9.41114283413069685e+00
4147 1 9.86156651989302979e+00
4148 1 8.51427243206837581e+00
4149 1 1.93470002170835507e+01
4150 1 1.50566195847404209e+01
4151 1 1.13441513650122570e+01
4152 1 1.10475534698757372e+01
4153 1 1.00514349238782774e+01
4154 1 2.05671542096266684e+01
4155 1 2.46834038997425260e+01
4156 1 2.88034546523172992e+01
4157 1 1.92104865299763850e+00
4158 1 8.04751466493016876e-01
4159 1 3.45252341524998974e+00
4160 1 1.98791481252130375e+00
4161 1 1.36742849118644489e+01
4162 1 6.35177124751601863e+00
4163 1 3.45033864546329738e+01
4164 1 1.37530010673939245e+01
4165 1 1.46566312867907111e+01
4166 1 1.71465655815672768e+01
4167 1 1.63291486776572050e+01
4168 1 4.90849998679295574e+00
4169 1 4.79639643994784581e+00
4170 1 5.03421864223732385e+00
4171 1 3.22435633162846642e+01
4172 1 1.01379025268769194e+01
4173 1 1.05926730011972730e+01
4174 1 1.02366275331466419e+01
4175 1 5.17577714707844407e+01
4176 1 4.85481455666521668e+01
4177 1 4.77501874397519117e+01
4178 1 5.25485019213956903e+01
4179 1 5.46979943548248428e+01
