%%MatrixMarket matrix coordinate  real general
4179 1 4179
1 1 2.51447331173195252e+01
2 1 3.06358721977195643e+01
3 1 3.99890699796166587e+01
4 1 5.13942873820142339e+01
5 1 2.10479679005454372e+01
6 1 -1.56117214214398246e+02
7 1 -1.40557824564502766e+03
8 1 -1.37181902510462669e+03
9 1 1.16365503380121098e+02
10 1 8.17053834681882449e+01
11 1 -3.52989309292713244e+02
12 1 -1.11083919261322012e+03
13 1 -1.81239678886927368e+03
14 1 -1.62127254953648026e+03
15 1 1.65774951629601105e+02
16 1 1.54665255700594935e+03
17 1 -6.20261214179754120e+02
18 1 -3.14327219699329817e+02
19 1 1.07696272362982904e+03
20 1 4.03224690113974020e+02
21 1 3.41503403145485379e+02
22 1 1.33312031163354249e+02
23 1 -2.17689536597912479e+02
24 1 -5.56677484578438794e+02
25 1 -9.51554197226683641e+02
26 1 -8.11599529164211276e+02
27 1 -3.68056008291857552e+02
28 1 -2.94328226528196751e+02
29 1 -9.36034881085151795e+01
30 1 3.81116059559081691e+02
31 1 4.43755325873992945e+02
32 1 4.47371433357501701e+02
33 1 4.47227211057301815e+02
34 1 4.45457666789030441e+02
35 1 4.38355476232587478e+02
36 1 3.65369318033387117e+02
37 1 2.24738315471746915e+02
38 1 1.12653733283595386e+02
39 1 9.62238715990325346e+01
40 1 9.62596999953232313e+01
41 1 9.63295680021530103e+01
42 1 9.63411776588913256e+01
43 1 9.66073777760100967e+01
44 1 7.28849539246229057e+01
45 1 5.08283002559698360e+01
46 1 2.32437610244131427e+01
47 1 -7.54840226278682422e+01
48 1 -1.08342480198880750e+02
49 1 -5.34339319526149570e+00
50 1 2.30392198393914569e+01
51 1 1.50496519830070223e+01
52 1 7.86781572944017515e-01
53 1 -6.98187580372641281e-01
54 1 -2.99083085098579193e+00
55 1 -3.09923132334576712e+00
56 1 -3.10096526736537337e+00
57 1 -3.10169317831861013e+00
58 1 -3.05910849169217647e+00
59 1 -2.44255639024282178e+00
60 1 -1.07782588411660352e+00
61 1 3.18129925726515994e+00
62 1 8.45274114139010990e+00
63 1 1.16299359221614065e+01
64 1 1.39771871064693123e+01
65 1 1.78869498530909539e+01
66 1 1.99666938199828188e+01
67 1 2.60676711534865362e+01
68 1 2.71700908081369406e+01
69 1 3.40706059238552896e+01
70 1 3.33317898822694261e+01
71 1 2.93572536457507880e+01
72 1 2.68431227081303412e+01
73 1 2.60699684354657535e+01
74 1 2.38162569336252012e+01
75 1 2.33061308621651122e+01
76 1 2.05132083466852535e+01
77 1 5.37038587654616784e+00
78 1 -1.81421266034723629e+01
79 1 -1.48302785378665387e+01
80 1 -1.34870530182778747e+01
81 1 -1.23918481706700589e+01
82 1 -1.09189138018617147e+01
83 1 -1.04223837849219656e+01
84 1 -8.57436868465330271e+00
85 1 -3.35686542863373916e+00
86 1 1.78854341344953349e+00
87 1 1.42793965661132951e+01
88 1 2.65829048310567444e+01
89 1 4.10531479728839841e+01
90 1 5.10539685322706802e+01
91 1 5.28399172155719796e+01
92 1 5.50274422554569398e+01
93 1 5.53145064265298103e+01
94 1 5.41426745371885190e+01
95 1 5.37803629257288804e+01
96 1 5.83032393955740673e+01
97 1 6.34426866461993271e+01
98 1 6.38802303340194513e+01
99 1 6.45547234136389960e+01
100 1 6.47166538749311542e+01
101 1 6.64133382936924193e+01
102 1 7.46903780886553079e+01
103 1 1.02224263044937814e+02
104 1 1.08747135536295687e+02
105 1 1.15954018214641522e+02
106 1 1.24218934429551680e+02
107 1 1.38585558481126156e+02
108 1 1.65227516198965247e+02
109 1 2.73269496107874318e+02
110 1 3.12178542979582517e+02
111 1 2.94885020411117068e+02
112 1 9.87625860686780896e+01
113 1 6.82217532990066644e+01
114 1 2.64806730099312375e+01
115 1 8.84067901981551429e+00
116 1 -9.92476910469092815e+01
117 1 -1.11904940549397963e+02
118 1 -4.76450758505355623e+01
119 1 2.33836629803063630e+02
120 1 3.31304444236762265e+02
121 1 4.02476537708403896e+02
122 1 4.06422533839856214e+02
123 1 5.10070293266698286e+02
124 1 5.51350823493022972e+02
125 1 3.78476625358767478e+02
126 1 2.74147485831142603e+02
127 1 1.92767885002054669e+02
128 1 -2.25628716137785915e+02
129 1 -2.35966851306202756e+02
130 1 -2.07572795761598570e+02
131 1 -1.82797677901526015e+02
132 1 -1.13929607507410665e+02
133 1 -5.76786928254955171e+01
134 1 4.08505942302753322e+00
135 1 3.44922426816684577e+01
136 1 -1.52845269066081073e+01
137 1 -8.66022911210008175e+01
138 1 -2.16483689044193795e+02
139 1 -2.44144524389647479e+01
140 1 1.39915316611805537e+02
141 1 1.29018240605335450e+02
142 1 1.22197773086745826e+02
143 1 1.10872353757130838e+02
144 1 1.09639549090580161e+02
145 1 1.01479603182368010e+02
146 1 9.59509012908566632e+01
147 1 5.77714468772611340e+01
148 1 3.64418210740355732e+01
149 1 4.19339774180194809e+01
150 1 1.67273468447970082e+01
151 1 -3.54418035641660509e+01
152 1 -2.38199652357417619e+02
153 1 -2.00711663670587939e+02
154 1 7.73327445426963607e+01
155 1 1.41575774123998485e+02
156 1 1.55345589014773964e+02
157 1 1.56262808002605567e+02
158 1 1.57344665244742174e+02
159 1 1.58991943728189000e+02
160 1 1.36737703678055539e+02
161 1 1.19168203918622254e+02
162 1 7.64724947615676314e+01
163 1 3.99590363017313805e+01
164 1 2.47852166881078162e+00
165 1 -1.64788399478413883e+00
166 1 -5.30869010524958185e+00
167 1 -2.50656322494953132e+00
168 1 -1.46529396708214144e+00
169 1 9.42348415882757084e-01
170 1 2.68941105256688173e+00
171 1 6.08895462804673215e+00
172 1 1.16052901740837129e+01
173 1 3.79428664241425224e+01
174 1 3.18659090350466947e+01
175 1 -1.30258982281350253e+01
176 1 -8.02089652584332953e+01
177 1 -1.81592620337922455e+01
178 1 6.18863864463866236e+01
179 1 6.96307624905285252e+01
180 1 7.14576354596833738e+01
181 1 7.24231006001222255e+01
182 1 7.25779374374833992e+01
183 1 7.70484406737621583e+01
184 1 9.94221676999150361e+01
185 1 1.71358676854137173e+02
186 1 2.96727518028622512e+02
187 1 5.02004756448415037e+02
188 1 6.06704454733058469e+02
189 1 9.06051854864709185e+02
190 1 2.11373244654976901e+02
191 1 1.42612959097881003e+02
192 1 -2.76320847004847974e+03
193 1 -9.84554296429486499e+02
194 1 9.33185594453904287e+02
195 1 -3.18337017132448580e+02
196 1 -2.83529535451906213e+02
197 1 -2.26657090583989316e+02
198 1 -1.78904214464961456e+02
199 1 -4.15303419152225572e+01
200 1 2.17980584180734460e-01
201 1 3.71993406668215130e+01
202 1 6.18329187224923373e+01
203 1 7.64192653276547134e+01
204 1 7.72296544284918554e+01
205 1 7.81203097572222731e+01
206 1 7.81635700699992668e+01
207 1 7.81728314856590032e+01
208 1 7.81760747021137803e+01
209 1 7.82254944813845583e+01
210 1 7.88543411220242518e+01
211 1 7.95664270328846044e+01
212 1 8.80081981181900659e+01
213 1 1.11808750908496961e+02
214 1 2.29467247124667011e+02
215 1 3.06565327425224041e+02
216 1 3.28258430748766557e+02
217 1 3.54561076316296976e+02
218 1 3.63881087528190506e+02
219 1 4.11987502047188343e+02
220 1 5.72742507886091062e+02
221 1 5.12539098290103198e+02
222 1 3.98156717867672171e+02
223 1 3.25398048344878191e+02
224 1 2.97016964724315812e+02
225 1 2.63164478293019897e+02
226 1 2.24376338543027543e+02
227 1 2.43264175859082371e+02
228 1 2.08442063734697200e+02
229 1 1.65783637393021820e+02
230 1 1.53421274526566009e+02
231 1 1.64627406767513179e+02
232 1 1.69198530522978984e+02
233 1 1.06478719145729087e+02
234 1 4.33546271639578933e+01
235 1 4.96880100510307301e+01
236 1 8.53444484178124156e+01
237 1 8.39041123851996105e+01
238 1 8.15605049745047239e+01
239 1 8.06097357532673584e+01
240 1 7.50807988440401317e+01
241 1 7.21842469454923759e+01
242 1 6.46762315106350059e+01
243 1 6.19963589043882095e+01
244 1 6.01119474340504709e+01
245 1 5.72978793570883411e+01
246 1 3.87841766623659296e+01
247 1 -9.03694553355734342e+01
248 1 -4.04640569741950117e+02
249 1 1.17504478039254423e+03
250 1 1.26925995076117852e+03
251 1 9.40466558644224477e+01
252 1 -1.98469457519757327e+02
253 1 -3.55536868264575787e+02
254 1 -4.40482888998956128e+02
255 1 -5.08811623818739918e+02
256 1 -5.65957370563470818e+02
257 1 3.22510702872212789e+02
258 1 9.01131043591201205e+02
259 1 -1.24368640409609884e+03
260 1 -2.50267816159356329e+02
261 1 5.69712568926768881e+02
262 1 -1.54604471779949506e+02
263 1 -1.55339139881461904e+02
264 1 -8.94137472065386163e+01
265 1 -3.65434963304378391e+00
266 1 2.00674375876505984e+01
267 1 7.81719984895292015e+01
268 1 -3.10356191358489264e+00
269 1 -6.76324604532484727e+02
270 1 -4.30206252525439766e+02
271 1 -3.89332366706455161e+02
272 1 -3.51947925855025346e+02
273 1 -2.30809242789050927e+02
274 1 -2.99323713806886872e+02
275 1 4.12415962600716114e+02
276 1 4.32624817624733737e+02
277 1 4.05761074698650930e+02
278 1 3.80264089185854175e+02
279 1 4.13567726759225479e+02
280 1 7.84663850192658430e+01
281 1 7.83185512443860858e+01
282 1 5.15862923601594900e+01
283 1 5.41603203744870072e+01
284 1 8.45645903545956514e+01
285 1 4.03603522585299345e+02
286 1 -4.72459912433872717e+02
287 1 1.11052213144440927e+02
288 1 1.13244884840695278e+02
289 1 1.05731372442733473e+02
290 1 1.07422762562818733e+02
291 1 3.48518246715336545e+02
292 1 3.53291763069507113e+02
293 1 7.91963619849831986e+01
294 1 8.13594531498404763e+01
295 1 -3.06614246000387674e+01
296 1 -4.58770392447325435e+02
297 1 3.43206547788778323e+02
298 1 3.23356450130788858e+02
299 1 -3.25996425810119428e+00
300 1 3.60074626477160336e+02
301 1 9.59406351763509093e+01
302 1 7.72105189859928061e+01
303 1 2.01290360567789253e+03
304 1 -1.78968086491051122e+03
305 1 -4.16338626766077091e+00
306 1 -3.51176632594857896e+00
307 1 5.91319509386207642e+02
308 1 5.25720347699035756e+02
309 1 4.52583768670365998e+02
310 1 3.34837346626805584e+02
311 1 1.35755003722798733e+02
312 1 1.66241969982722566e+02
313 1 -2.03848430512903578e+00
314 1 2.45118917007305761e+01
315 1 2.13342159810914929e+01
316 1 2.65369809975257880e+01
317 1 2.65931611422293628e+01
318 1 2.34466104724691000e+01
319 1 2.47901801902185994e+01
320 1 2.99193075187328823e+01
321 1 2.84217219035730082e+01
322 1 3.57288482909813752e+02
323 1 3.20170804475539228e+02
324 1 4.55616417482940392e+02
325 1 1.10178822304474338e+02
326 1 2.02949607091545488e+02
327 1 9.62412869952963206e+01
328 1 6.05621869948114195e+01
329 1 -6.11850576160624655e+02
330 1 -4.20486451499475947e+02
331 1 7.77237486885991160e+01
332 1 -5.36929341902869766e+01
333 1 5.74228084486691692e+00
334 1 2.12165666511330251e+01
335 1 2.22249277097040370e+01
336 1 2.14428973731306520e+01
337 1 1.19137141716189234e+02
338 1 1.04776287079062044e+02
339 1 9.17439153785698913e+00
340 1 2.09319410388562147e+02
341 1 -2.15415310689952207e+02
342 1 -3.28262137404455643e+02
343 1 2.26408162022230712e+01
344 1 -6.64529452281203987e+01
345 1 -1.83595433185965078e+01
346 1 -2.71362687903327924e+02
347 1 1.08278008503683935e+02
348 1 9.45129447886572166e+02
349 1 -2.56868967264061394e+03
350 1 -2.76504316412679771e+02
351 1 -9.41414021219171900e+02
352 1 -9.42232400203948600e+02
353 1 -1.91346880644070154e+02
354 1 -9.09708300358623660e+02
355 1 -2.69587864402432785e+02
356 1 -3.99566963440071049e+02
357 1 -6.66301450561415322e+02
358 1 2.64718752375491817e+02
359 1 2.69598914402602841e+00
360 1 7.15077827252959537e+01
361 1 8.72074208658782624e+01
362 1 8.03622318578917998e+01
363 1 7.92972748593185486e+01
364 1 9.39245852651038291e+01
365 1 -1.22241821599542124e+01
366 1 1.29721473707601433e+02
367 1 1.30344416905033171e+02
368 1 1.43846533416822382e+02
369 1 1.98650199483381243e+02
370 1 1.62084759715198487e+02
371 1 1.65278599270212283e+02
372 1 9.85139350079240188e+01
373 1 3.45661238236187796e+00
374 1 4.66352368606444756e+00
375 1 1.29992180250878264e+00
376 1 2.07540964354518698e+00
377 1 -4.48845672629927783e+00
378 1 -1.56802594572362453e+00
379 1 8.07585072128465598e+00
380 1 8.59866725993107472e+00
381 1 -7.84418754780269865e+01
382 1 -3.99650871952790609e+00
383 1 4.65353092737218343e+00
384 1 1.25370587395402957e+01
385 1 5.71992635816094275e+00
386 1 -1.31970808676712714e+00
387 1 1.60251981781566855e+01
388 1 1.13150681402775994e+01
389 1 3.64633051905579286e+00
390 1 -7.07980311091134862e+00
391 1 2.92767005381127099e+01
392 1 2.48894136366427574e+01
393 1 2.09479699741835397e+01
394 1 2.48755463394727698e+01
395 1 1.53270970668473041e+02
396 1 5.84071613242871592e+01
397 1 3.26678191353719285e+01
398 1 6.76909132478896538e+01
399 1 2.52297353684992842e+01
400 1 -1.11681930936819953e+02
401 1 -2.96577882264756113e+02
402 1 -6.25084942348860864e+01
403 1 -1.32746321933897462e+02
404 1 -1.10811219101910098e+02
405 1 -4.26237961447470539e+01
406 1 -8.77098857659849429e+00
407 1 -1.95369746080523953e+02
408 1 -4.44995316463331250e+01
409 1 -6.06940488541906547e+01
410 1 2.45873969737290672e+01
411 1 9.20289997107057189e+01
412 1 -9.21288965914950531e+00
413 1 -5.09223859714798799e+00
414 1 -1.28640710318314291e+01
415 1 -1.49721908779004860e+01
416 1 6.41027173554629570e+01
417 1 1.20779885822044069e+01
418 1 4.51829671101087413e+01
419 1 -6.38624200006600446e+01
420 1 3.45452712661563481e+01
421 1 5.24076434445108958e+01
422 1 1.66170424955111180e+01
423 1 1.04588359921491492e+01
424 1 -6.92385729565958599e+01
425 1 -2.13404560928612632e+01
426 1 -3.14801994429076473e+01
427 1 -4.26362938536885210e+01
428 1 -2.46337616775614805e+01
429 1 -7.98231730490003333e+00
430 1 -3.03689150957670044e+01
431 1 5.79613706597799307e+01
432 1 -7.73539910968222433e+00
433 1 2.37571383648221754e+01
434 1 4.15167479111756066e+01
435 1 1.73431470392025773e+02
436 1 1.36461009934509860e+02
437 1 7.21569385933778875e+01
438 1 7.58263465468680522e+01
439 1 7.75432177593960148e+01
440 1 7.07643770086575898e+01
441 1 7.59205970986528200e+01
442 1 6.27874395676635331e+01
443 1 1.62989624878039706e+02
444 1 4.02279439374169499e+02
445 1 2.20166860501045818e+02
446 1 7.90486990402674223e+01
447 1 1.71267631863136359e+02
448 1 2.69615234545528267e+02
449 1 2.26453906557903906e+02
450 1 1.79642509146201661e+02
451 1 4.86691812977498955e+02
452 1 4.50503315614973360e+02
453 1 -9.66939936874412496e+01
454 1 -1.26993198612101750e+02
455 1 -1.14396854375169482e+02
456 1 -2.27056820536294396e+02
457 1 -1.28267352396958756e+02
458 1 -1.37810199504616065e+02
459 1 -1.22106315507336902e+02
460 1 -4.29017451122799969e+02
461 1 -2.07264953841616006e+02
462 1 -5.17555220718141697e+01
463 1 -1.60731504640498571e+02
464 1 -1.55701232681539352e+02
465 1 -2.18807647778828965e+02
466 1 -6.23482272846365717e+01
467 1 -9.99836322756474374e+01
468 1 -1.26745097388740788e+02
469 1 4.96095625525187927e+02
470 1 -2.95707506483631107e+02
471 1 -1.72759229385127895e+02
472 1 -1.50668411687704321e+02
473 1 -1.42802903192675956e+02
474 1 -1.23615692755542867e+02
475 1 5.68040819789426354e+00
476 1 -2.38210971884033540e+02
477 1 -1.58281465864807444e+02
478 1 -7.60312909228843949e+01
479 1 -3.68218167187026069e+01
480 1 -3.60227110618400559e+01
481 1 1.26432621496467206e+02
482 1 3.92016676739018664e+01
483 1 -8.21386942172479806e+00
484 1 1.14100053171827724e+02
485 1 1.23194640577741609e+02
486 1 1.33997131432425107e+02
487 1 -7.82412546665523649e+01
488 1 1.35568206120644277e+02
489 1 1.73186038106114296e+02
490 1 1.32996388222752500e+02
491 1 9.11015089311388095e+01
492 1 8.98352030566165212e+01
493 1 5.57326492430294778e+01
494 1 7.37685631470661747e+01
495 1 4.34193438765945317e+01
496 1 1.06637098378946050e+02
497 1 1.57469682339624324e+01
498 1 1.81858411725710738e+01
499 1 3.06173176769068149e+01
500 1 5.29007247878888478e+01
501 1 5.71181016315536354e+01
502 1 5.53446004103367031e+01
503 1 5.59401439605778492e+01
504 1 5.57505685812189000e+01
505 1 5.13766953136702824e+01
506 1 5.36318095354547850e+01
507 1 5.24527377637688446e+01
508 1 3.45510914337811812e+01
509 1 4.41223409604155421e+01
510 1 4.82495724228552803e+01
511 1 5.03636900728745260e+01
512 1 5.44804268227247164e+01
513 1 4.89373128218001057e+01
514 1 4.01950177198421770e+01
515 1 5.55427234822796265e+01
516 1 2.88234029771331350e+01
517 1 2.43971945512076530e+02
518 1 8.98492857173111361e+02
519 1 9.85862395818621394e+02
520 1 5.11316382960096860e+02
521 1 7.54784863106326725e+02
522 1 6.15862437598351335e+02
523 1 2.96798365755015752e+01
524 1 3.11195237568039325e+01
525 1 2.84064547922367545e+01
526 1 2.63976971665523585e+01
527 1 2.29381200431961929e+01
528 1 2.43066510731286023e+01
529 1 1.56647958502357795e+02
530 1 1.55623138623368106e+02
531 1 6.20331224067786138e+02
532 1 2.58646730612463330e+02
533 1 1.68575767367534553e+02
534 1 -6.28297435053272807e+02
535 1 3.60309152966713214e+02
536 1 1.04655223519219032e+00
537 1 2.06997709077015742e+02
538 1 3.44960848199128804e+02
539 1 1.86150695151539765e+02
540 1 1.00059995506871962e+03
541 1 1.55445466883746501e+01
542 1 1.78384160723015910e+01
543 1 1.25367101940682844e+02
544 1 1.65614226995927140e+02
545 1 1.92758248560581364e+02
546 1 4.09223094539610827e+02
547 1 -1.74101964401026009e+02
548 1 -1.41218138465843566e+02
549 1 -1.29369005347902316e+02
550 1 -2.17781695424933702e+02
551 1 -1.68812459666261844e+02
552 1 -1.78120929088238142e+02
553 1 -5.14368725076087188e+01
554 1 -8.28634640550757666e+01
555 1 -3.18107008999202598e+01
556 1 8.34041747590949001e+01
557 1 2.66866105799999325e+01
558 1 -3.67444805914754579e+03
559 1 -2.33090906217124984e+03
560 1 -1.47986929432857050e+03
561 1 -1.50306159816671288e+03
562 1 -4.95648113257187273e+00
563 1 -4.16484746454992383e+00
564 1 -1.63563073881750789e+01
565 1 -8.47402305944387280e+00
566 1 3.83947798859007264e+02
567 1 3.27912029656224661e+02
568 1 -3.94991681661474502e+02
569 1 2.62753259996593670e+02
570 1 5.35363100559759957e+01
571 1 -9.09658223897960852e+02
572 1 -1.69619471321956053e+03
573 1 3.41888357946354688e+02
574 1 3.34372483981857215e+02
575 1 3.17962024003599709e+02
576 1 3.64519217132275628e+02
577 1 3.63099121806989217e+02
578 1 3.98966980283873056e+02
579 1 3.63552951062703585e+02
580 1 3.81819903892263142e+02
581 1 3.83521654777331207e+02
582 1 3.20918153424184084e+02
583 1 1.09719121025501721e+02
584 1 -3.54656031297294112e+03
585 1 -9.24297060459899967e+02
586 1 -2.36498967613746663e+03
587 1 -1.82694766368495289e+03
588 1 3.07932038473318698e+02
589 1 1.01568924372561877e+01
590 1 -5.20294840289364629e+02
591 1 2.44199067724304678e+03
592 1 1.64415756526921405e+03
593 1 2.12016059506771164e+01
594 1 3.49362374506817503e+02
595 1 7.83595703230745130e+02
596 1 1.21316344643683379e+02
597 1 -8.89161653946638637e+01
598 1 1.73184802559531903e+02
599 1 4.29769209832924162e+02
600 1 1.22089915043155681e+01
601 1 1.53836485171469690e+02
602 1 8.47805337077097221e+01
603 1 -2.10368356940842119e+02
604 1 -2.18580334893957001e+02
605 1 7.43616698102412421e+00
606 1 3.73794547789105309e+02
607 1 -2.52005849622570679e+02
608 1 -6.80902098161262643e+02
609 1 -8.38929742955897240e+01
610 1 1.67052497684466857e+02
611 1 2.15320868776277308e+02
612 1 1.32898103379873021e+02
613 1 6.45151894333601717e+02
614 1 3.04056710818392162e+02
615 1 1.06245037007997738e+02
616 1 1.10500799709761477e+01
617 1 1.03938605500917873e+02
618 1 1.06635688719184955e+02
619 1 5.56056114278591309e+01
620 1 7.15338802574904804e+01
621 1 2.00037414216532810e+01
622 1 7.64377231938379538e+01
623 1 8.26389649011916134e+01
624 1 8.08591234913541541e+01
625 1 8.19972959985474432e+01
626 1 6.96646277309506132e+01
627 1 6.39950124378012362e+01
628 1 6.91289460368385136e+01
629 1 6.32630764493205717e+01
630 1 6.11168128171745195e+01
631 1 5.97590779470034192e+01
632 1 4.96919681966216231e+01
633 1 6.47898083211359221e+01
634 1 1.58857930609128939e+01
635 1 -1.22706372160033709e+02
636 1 1.31285573277863818e+02
637 1 1.82999330714674812e+02
638 1 6.09517492077876710e+01
639 1 6.17234858531926136e+01
640 1 6.24083839019407023e+01
641 1 6.10316409546698608e+01
642 1 6.10606598871438280e+01
643 1 6.76695667567055352e+01
644 1 6.93663268845383669e+01
645 1 7.45986995496668470e+01
646 1 7.84345329405786629e+01
647 1 6.54548356985839774e+01
648 1 8.41699852743029169e+01
649 1 8.87435912165879159e+01
650 1 1.05856131143100185e+02
651 1 9.46012386346280181e+01
652 1 8.46457987952843780e+01
653 1 8.45676469210411028e+01
654 1 2.18758689621271685e+02
655 1 1.78332783089094306e+02
656 1 3.08332606379062327e+02
657 1 1.42329908416240073e+02
658 1 1.17522063470564078e+02
659 1 9.42236941492754596e+01
660 1 3.04136308350237350e+01
661 1 4.44283449348888411e+01
662 1 -1.65358552497042439e+02
663 1 -7.79299782116373308e+02
664 1 -5.18486514856632198e+02
665 1 -3.23120951738965289e+02
666 1 -1.15042156392629025e+02
667 1 -1.70234955142641297e+02
668 1 -2.08658740869699670e+02
669 1 -5.14571805546557073e+01
670 1 -5.59261506890926441e+01
671 1 -7.48202816025623179e+01
672 1 -1.24498379344529809e+02
673 1 -1.34496790221074150e+02
674 1 -2.92861775770305599e+02
675 1 -3.63516517848918738e+02
676 1 -2.26307246531215469e+02
677 1 5.13629160452318160e+02
678 1 4.35712845661125954e+01
679 1 1.10524364080620740e+03
680 1 9.39460768744548886e+02
681 1 5.85958532984583940e+02
682 1 -1.34859699541643113e+03
683 1 1.06375141249657148e+02
684 1 8.57430910915010600e+02
685 1 -3.10201380648950931e+00
686 1 -3.11390348597993638e+00
687 1 -3.10190096961512607e+00
688 1 3.79793097699569486e+01
689 1 2.56173681131986299e+01
690 1 1.87016981465025083e+01
691 1 2.74140902848889212e+01
692 1 2.53532629451137623e+01
693 1 2.22004886825023178e+01
694 1 1.88519670167888584e+01
695 1 1.25844328896053330e+01
696 1 2.01304152032242207e+01
697 1 3.10074515319698946e+02
698 1 5.30392179903474357e+02
699 1 5.48288677203896441e+02
700 1 1.65707333370371884e+02
701 1 2.95631671271043899e+02
702 1 3.62114419588536236e+02
703 1 3.05331221548373378e+02
704 1 2.59192066416308535e+02
705 1 -4.00243298725756290e+02
706 1 -4.21506596272166778e+00
707 1 2.23757849289846263e+02
708 1 7.74649346782699126e+02
709 1 2.83629118267646334e+02
710 1 4.44371576194226577e+02
711 1 7.99674227319929827e+01
712 1 -5.94913688396185876e+02
713 1 -1.39899134802191014e+02
714 1 -6.93426183246891696e+02
715 1 -6.79165121519415493e+02
716 1 8.51995344612029015e+01
717 1 -3.56236811255752684e+02
718 1 -2.43378737562233056e+02
719 1 -2.01556897627325810e+02
720 1 6.24151025217677855e+01
721 1 -1.24619209446499008e+03
722 1 -5.92689132698239632e+02
723 1 -6.84279810695351557e+02
724 1 -3.21253628346801406e+02
725 1 -1.16146321654455301e+03
726 1 -1.13101255448296524e+03
727 1 -8.05877942221324020e+02
728 1 -7.71120231788784622e+02
729 1 -3.57415834589732128e+02
730 1 1.67244925877757964e+02
731 1 -7.52082337883853285e+01
732 1 -2.36306161178514316e+02
733 1 -3.63502910578678609e+02
734 1 -4.53068749605033645e+01
735 1 1.09324228418268717e+02
736 1 2.77995116243587461e+02
737 1 3.70290356002369890e+02
738 1 1.68263086336502397e+03
739 1 -5.49131050313635797e+02
740 1 3.63021242018322482e+02
741 1 5.60724444554275237e+02
742 1 4.62615981008407232e+02
743 1 4.54281415739172871e+02
744 1 3.85647859115817937e+00
745 1 4.92026875218829396e+00
746 1 -2.49646797121773334e+00
747 1 7.86020122450672698e+00
748 1 -6.84156287457336587e-01
749 1 -7.05860224567124117e+00
750 1 1.56537575273548839e+02
751 1 1.56630558865838736e+02
752 1 2.52450778754062917e+01
753 1 2.51191326076683730e+01
754 1 2.39851606696199049e+01
755 1 2.36191032757438570e+01
756 1 2.43428129683291843e+01
757 1 2.61113564481872693e+01
758 1 2.65519314871060992e+01
759 1 2.82474412081600796e+01
760 1 2.82417217389847970e+01
761 1 2.79621469409986645e+01
762 1 3.13398071761707939e+01
763 1 2.92954513664588809e+01
764 1 2.99914147438533440e+01
765 1 3.08029681114893990e+01
766 1 3.07345045255241871e+01
767 1 2.58915932308904537e+01
768 1 2.57690522945956495e+01
769 1 2.50819640713265670e+01
770 1 6.44246298520350962e+01
771 1 6.41937692148819821e+01
772 1 6.45953334250172020e+01
773 1 6.49663224633169420e+01
774 1 6.50177811006528970e+01
775 1 5.74067335014958147e+01
776 1 -4.79256846421840294e+02
777 1 -4.78052652437610050e+02
778 1 -4.10454731706632174e+02
779 1 -4.05856513448613555e+02
780 1 2.20259012428471436e+02
781 1 4.68938280439942616e+02
782 1 8.73182456074338461e+02
783 1 7.81773354540706720e+01
784 1 7.82219232372177800e+01
785 1 7.83392246257359517e+01
786 1 7.78268434615376634e+01
787 1 7.82999056949178964e+01
788 1 4.22220493620364266e+02
789 1 -1.61598595369125746e+02
790 1 -1.08668404717670100e+02
791 1 -7.10576634076525409e+01
792 1 -1.59128711417069297e+02
793 1 -8.00056938095532799e-01
794 1 1.39954591186902206e+02
795 1 2.59540367716730998e+02
796 1 2.29231782897796137e+02
797 1 1.93056211726789883e+02
798 1 1.31645679712490249e+02
799 1 1.13753200189038068e+02
800 1 1.70166853602245652e+02
801 1 1.88563953077950345e+02
802 1 2.24417000728681757e+02
803 1 6.93821550322365539e+01
804 1 9.82065408385197003e+01
805 1 5.75774748470748747e+01
806 1 1.67968925475909252e+01
807 1 7.25104522331981087e+01
808 1 1.18244795320339435e+02
809 1 2.79100062114191587e+02
810 1 1.82763314953629987e+02
811 1 3.10949758628354004e+02
812 1 7.75347315203838434e+01
813 1 1.93963343385356382e+02
814 1 -3.05001700316406414e+02
815 1 6.39884585934313890e+01
816 1 6.39623114198326590e+01
817 1 2.81660839635711007e+01
818 1 3.17862968582759784e+01
819 1 2.92118660948241491e+01
820 1 1.56100682080344569e+02
821 1 1.52794395904092283e+02
822 1 7.34264012469331462e+00
823 1 -2.25127060203865881e+00
824 1 1.82273875899332474e+01
825 1 1.36640353426873880e+01
826 1 4.17666437858400297e+00
827 1 2.50347414852512031e+01
828 1 1.95217800998231290e+01
829 1 2.21187470136252244e+01
830 1 -9.17025031162805782e+00
831 1 -2.07607482588429093e+01
832 1 -3.46327694558515233e+01
833 1 -1.33196045141989003e+01
834 1 -1.76702624812899245e+01
835 1 -2.69807689008548195e+01
836 1 -2.24556862636570678e+01
837 1 -1.00160490721130095e+01
838 1 -4.61863856725698430e+00
839 1 1.88620333596545713e+01
840 1 2.99107145221102222e+01
841 1 2.68539808063235590e+01
842 1 3.85888232619222222e+01
843 1 3.26913892873836573e+01
844 1 4.21053023919405618e+01
845 1 2.44500319669608750e+01
846 1 2.21323972628887518e+01
847 1 2.09477997568823540e+01
848 1 1.33762540481182803e+01
849 1 3.94586632598771473e+02
850 1 3.71684331108789308e+02
851 1 2.87778677141874425e+02
852 1 3.31502062023219707e+02
853 1 3.49332869732283939e+02
854 1 3.23916621794591038e+02
855 1 2.93244885325707799e+02
856 1 3.19004730543881976e+02
857 1 2.77902820837977970e+02
858 1 2.81228184139902055e+02
859 1 3.06702931315466174e+02
860 1 3.20305790699311387e+02
861 1 3.02039213083517154e+02
862 1 1.69086612224470201e+02
863 1 1.81526487103678761e+02
864 1 2.68022250925124013e+02
865 1 2.37843535348103643e+02
866 1 2.62933216457679293e+02
867 1 2.87180688360326656e+02
868 1 2.39294996904707830e+02
869 1 2.91972256858125263e+02
870 1 2.53529108560254286e+02
871 1 2.79611077076093409e+02
872 1 2.37906156457753724e+02
873 1 2.71141417254450403e+02
874 1 2.49646796983220497e+02
875 1 2.69748209988148460e+02
876 1 2.85728756639702851e+02
877 1 2.71952000865509149e+02
878 1 1.78549007788767483e+02
879 1 -4.10516151469620993e+01
880 1 8.55466400583116524e+01
881 1 3.34313158044941687e+01
882 1 8.75340929158063545e+01
883 1 2.35678324180100589e+02
884 1 -5.09859458141080637e+01
885 1 -4.29870752376377254e+01
886 1 5.77578109328944791e+01
887 1 -9.89946487929225441e+02
888 1 -3.34896926770825246e+02
889 1 -1.53768194544219853e+02
890 1 -3.23830458092164335e+01
891 1 -1.93728308070698517e+02
892 1 -5.05467984400887303e+02
893 1 -2.11814520488464552e+02
894 1 -4.54313618618652470e+02
895 1 -2.38658935265698375e+02
896 1 -6.10944947882211409e+02
897 1 -1.11823163701739372e+03
898 1 -1.01259435577940053e+03
899 1 -1.02568619798505182e+02
900 1 5.30813952682803574e+02
901 1 1.77946731242132955e+02
902 1 1.21876162950363351e+02
903 1 2.11511786617298696e+02
904 1 4.94595407971456638e+01
905 1 -2.55897591265923801e+01
906 1 1.45704043136029817e+01
907 1 -1.13031584731448532e+02
908 1 -5.62478243225012307e+01
909 1 -2.63079210489261072e+02
910 1 -2.14542784747054611e+02
911 1 -2.84873715379388670e+02
912 1 -4.78125758397478535e+02
913 1 -3.19653143583014867e+02
914 1 -3.97600698358566035e+02
915 1 -3.91931313106355276e+02
916 1 1.26591254126869273e+02
917 1 2.64233432927434251e+02
918 1 3.10657387550207993e+01
919 1 3.95861944026940023e+02
920 1 3.13798206189202915e+02
921 1 4.46229405337545813e+02
922 1 5.66340354351226125e+01
923 1 1.35893662144477821e+03
924 1 3.46408792650527573e+02
925 1 -1.96674602016619744e+01
926 1 9.80299109504163226e+01
927 1 -7.87849265038873682e+02
928 1 -1.03322438239322037e+03
929 1 -3.46715273019097765e+01
930 1 2.26503267131730837e+02
931 1 1.27749318611749018e+02
932 1 8.88723970517552061e+02
933 1 4.29093807863562347e+02
934 1 -1.03718316625863665e+02
935 1 -2.35842630063455289e+02
936 1 -2.70319341537443790e+02
937 1 -1.14293967261060899e+02
938 1 -1.75232621350900615e+02
939 1 -1.50051767007854380e+02
940 1 -1.53917660356305191e+02
941 1 -2.17675287385710817e+02
942 1 -1.77086864175662470e+02
943 1 -1.89375881193284158e+02
944 1 -2.58904522807475416e+02
945 1 2.11711103337286701e+01
946 1 -1.83714694200967756e+02
947 1 -2.19532220503312971e+02
948 1 -4.36376253980005288e+02
949 1 -2.90437999441685633e+02
950 1 -2.46196152407539842e+02
951 1 -2.45842848077919257e+02
952 1 -4.86656883476171970e+02
953 1 -8.31733186671261024e+02
954 1 -7.87845123483332372e+01
955 1 -9.51088234039383167e+01
956 1 -4.52875101566377136e+00
957 1 -4.50894486860829247e+01
958 1 -6.22062994818767390e+00
959 1 -8.24821654841204435e+01
960 1 -1.20391373585567123e+02
961 1 -1.64816933137882899e+02
962 1 -2.25032878804735859e+01
963 1 7.33423620841278137e+01
964 1 -2.33921861997137569e+02
965 1 3.11901031446106913e+02
966 1 1.92313576379709644e+02
967 1 -3.51416606269045133e+02
968 1 -5.10804462391769789e+02
969 1 -6.84883028484028159e+02
970 1 -9.44836819042684795e+01
971 1 -1.33089490141675753e+02
972 1 -1.26087536368413311e+02
973 1 -4.80712505751590697e+01
974 1 -7.92359177125982086e+01
975 1 -7.33102227519400742e+01
976 1 -8.79007760220578973e+01
977 1 -1.13384296707455348e+02
978 1 -1.14837477292795896e+02
979 1 -1.07414510637663042e+02
980 1 -2.68440248396692652e+02
981 1 -9.69118035135467863e+01
982 1 -1.53515229109238192e+02
983 1 -6.96269460507652980e+01
984 1 -7.59267484849851115e+01
985 1 -5.04252995799467385e+01
986 1 -6.31122102080888965e+01
987 1 -3.33232130935110717e+01
988 1 -5.02859795207555464e+01
989 1 -5.77257985378333274e+01
990 1 -7.07533098561414988e+01
991 1 -5.95414664262939937e+01
992 1 -4.45227608217008921e+01
993 1 -4.29612350136641297e+00
994 1 -1.22207832030836144e+02
995 1 -8.08174507148523418e+01
996 1 -1.18612766282482696e+02
997 1 -4.48086054490878439e+02
998 1 -5.54284280486967077e+02
999 1 -1.76812373837425241e+02
1000 1 -1.31437631994976556e+02
1001 1 4.62967014094216225e+01
1002 1 -5.33652342367359722e+01
1003 1 1.88352440141277725e+02
1004 1 -3.36804855222018261e+02
1005 1 -1.96644864908530053e+02
1006 1 -1.34037967625513744e+02
1007 1 -1.68531845140948633e+02
1008 1 -2.42956491775810299e+01
1009 1 -5.25923337776561155e+01
1010 1 -1.31439906025373325e+01
1011 1 -3.79615506405614980e+01
1012 1 -7.15613188134265528e+01
1013 1 2.94549805292464782e+02
1014 1 9.08313169410337622e+01
1015 1 1.03091776608483698e+01
1016 1 -4.12324169878566522e+01
1017 1 2.45939314970619272e+01
1018 1 -4.53137227774159079e+00
1019 1 7.85076330684028392e+01
1020 1 7.13281943794555957e+01
1021 1 1.67594550940892901e+02
1022 1 -2.82826740938922114e+01
1023 1 2.36669185390780541e+01
1024 1 1.57884958744991124e+01
1025 1 -6.26930305971515409e+01
1026 1 -3.46365548797278606e+01
1027 1 -1.00762944270360109e+02
1028 1 9.64307171196959700e+01
1029 1 3.79292148706204912e+01
1030 1 6.91250302898473024e+01
1031 1 1.86950271613835412e+02
1032 1 2.35194758203266304e+02
1033 1 6.13385638991270980e+02
1034 1 3.58722480922631576e+02
1035 1 2.67622321167051211e+02
1036 1 1.59873690663705645e+02
1037 1 3.34559770433367447e+01
1038 1 1.59478575643189679e+00
1039 1 7.16374392328672371e+01
1040 1 6.88560402386414410e+01
1041 1 1.92371704793815113e+01
1042 1 9.50863015991673066e+00
1043 1 -7.43890915769428602e+01
1044 1 -2.88680339604893902e+02
1045 1 -1.96895310102646306e+02
1046 1 -2.05413044023156601e+02
1047 1 -1.02746659165229701e+02
1048 1 -3.56218352773462286e+01
1049 1 -1.32283698390888048e+02
1050 1 -1.46944153306197762e+02
1051 1 -2.53493567237032664e+02
1052 1 -4.03637239897768268e+02
1053 1 2.13710192695870745e+02
1054 1 4.14464676138073358e+01
1055 1 -5.47453045876975466e+02
1056 1 -4.84800417905037989e+02
1057 1 1.39149066440380892e+02
1058 1 1.95979262312482120e+02
1059 1 1.91547639694412766e+02
1060 1 7.61404463191487935e+01
1061 1 1.39115075715609521e+02
1062 1 7.09202982781895344e+01
1063 1 1.15472997914102393e+02
1064 1 9.72659388793557440e+01
1065 1 7.54398077358777215e+01
1066 1 3.37801389166389443e+00
1067 1 3.76761870837171742e+01
1068 1 1.43373406087592400e+02
1069 1 1.62101907975862247e+02
1070 1 1.11320746805266637e+02
1071 1 1.38276193919638246e+02
1072 1 1.28085657137631557e+02
1073 1 9.68116511146498766e+01
1074 1 7.79482092943590317e+01
1075 1 1.00434896449061256e+02
1076 1 7.56761872782678324e+01
1077 1 7.90835712654251068e+01
1078 1 4.92713363101837700e+01
1079 1 6.15742391811891991e+01
1080 1 4.89952099993440839e+01
1081 1 3.27526591889633423e+01
1082 1 2.19470445087403405e+01
1083 1 2.24772172603175200e+01
1084 1 5.71770074440115863e+01
1085 1 5.41903055694648117e+01
1086 1 4.84332135635945207e+01
1087 1 4.53843831547909815e+01
1088 1 6.56997428158049104e+01
1089 1 8.13956467729578463e+01
1090 1 7.94093800932118086e+01
1091 1 6.80084494355994167e+01
1092 1 6.43305953199193254e+01
1093 1 6.37809662402923152e+01
1094 1 4.40394305169134981e+01
1095 1 4.59937965438385774e+01
1096 1 1.76067839976231504e+01
1097 1 2.54493773578722760e+01
1098 1 3.94326752432289780e+01
1099 1 1.41798641775861967e+01
1100 1 -1.19855718958634849e+01
1101 1 1.44953932086156922e+00
1102 1 -4.27551205730394841e+01
1103 1 -1.61431445919251537e+01
1104 1 -2.82201242783541453e+01
1105 1 -3.85272067766742268e+01
1106 1 -6.85774978839557576e+01
1107 1 -6.55584536760463124e+01
1108 1 -4.56281127152486832e+01
1109 1 -9.42388358705939879e+01
1110 1 -2.42069755821101857e+01
1111 1 2.91468608618415237e+00
1112 1 -1.72712231167665409e+00
1113 1 -1.37412650624232668e+01
1114 1 1.63974420355864936e+01
1115 1 1.39102325175888186e+01
1116 1 1.64498221622068854e+01
1117 1 1.02729128270868664e+01
1118 1 -4.19200877559527196e+00
1119 1 7.08527785349813577e+00
1120 1 -3.75720328797472591e+00
1121 1 1.77162629867434589e+01
1122 1 1.79219762019496507e+01
1123 1 2.24305392913040187e+01
1124 1 2.11340577735370729e+01
1125 1 2.40108413808080599e+01
1126 1 2.60851775515396724e+01
1127 1 2.51208923327761333e+01
1128 1 2.73703051365351584e+01
1129 1 3.86205274193930208e+01
1130 1 3.43584419179382010e+01
1131 1 3.14714281675643441e+01
1132 1 2.06399948241785580e+01
1133 1 2.92763975352735386e+01
1134 1 2.78675122706212264e+01
1135 1 4.26640514041312073e+01
1136 1 4.88275505597830985e+01
1137 1 6.51020544697278609e+01
1138 1 3.85133959890206157e+01
1139 1 1.92324204763590636e+01
1140 1 1.85153243567648396e+01
1141 1 2.29511271658540927e+01
1142 1 3.26424553040360763e+01
1143 1 1.99925701757525545e+01
1144 1 2.38401794594484997e+01
1145 1 1.49087665384424604e+01
1146 1 1.88620018825573013e+01
1147 1 2.19712533863895203e+01
1148 1 9.54374529201172095e+00
1149 1 -2.74600018144984082e-01
1150 1 6.66742664842404520e-01
1151 1 -2.39479528919482796e+01
1152 1 1.60288903127009696e+01
1153 1 4.43338844568471018e+01
1154 1 2.05672072197650735e+01
1155 1 2.50799818074199754e+00
1156 1 3.48112254014609377e+01
1157 1 2.77319067283914400e+01
1158 1 2.59291248889491825e+01
1159 1 2.63849979244718149e+01
1160 1 2.53437696888104149e+01
1161 1 2.43723762336680494e+01
1162 1 3.60234943497524469e+01
1163 1 1.98365688342474655e+01
1164 1 3.32299332000654530e+01
1165 1 7.02774943352826114e+01
1166 1 4.86357151642202439e+01
1167 1 4.76102935538081269e+01
1168 1 4.48680554706994883e+01
1169 1 2.23299035884912023e+01
1170 1 2.61315304725220727e+01
1171 1 3.58814380050137416e+01
1172 1 -1.69993501427169811e+01
1173 1 -2.57005432704530321e+01
1174 1 3.24062686928405697e+01
1175 1 -2.21801833860019144e+01
1176 1 -4.37299429650023512e+01
1177 1 -1.90043419258614925e+01
1178 1 -3.33209241396565048e+01
1179 1 2.54966509996046398e+01
1180 1 2.22456456813866446e+01
1181 1 -6.24606642185663130e+00
1182 1 2.39341711172244693e+01
1183 1 2.90706114396475037e+01
1184 1 1.69668254866517287e+01
1185 1 2.25721142010004492e+01
1186 1 1.13085300511735511e+02
1187 1 1.17681503000146833e+02
1188 1 9.56401445033706779e+01
1189 1 9.58069578436187186e+01
1190 1 1.17045686410251051e+02
1191 1 3.03317997978362577e+01
1192 1 6.04980874419769918e+01
1193 1 2.48660495615054238e+01
1194 1 -8.20221172122011488e+00
1195 1 -3.09234790523203458e+01
1196 1 -2.42530150146711101e+01
1197 1 -5.28894344684575159e+01
1198 1 -2.09517212191803193e+00
1199 1 -1.26308610305206699e+01
1200 1 1.60923437293136509e+01
1201 1 -4.05837100629992804e+01
1202 1 -1.88815678554723725e+01
1203 1 -6.01384787614753265e+01
1204 1 -4.78041904732635814e+01
1205 1 -7.03792587919538590e+01
1206 1 -5.39135214734350683e+01
1207 1 4.69714799413601440e+01
1208 1 1.02053781059522450e+02
1209 1 3.49444544881667909e+01
1210 1 -2.21821308757005831e+01
1211 1 4.69436234068824376e+02
1212 1 4.15208065649218497e+02
1213 1 6.96276146517756274e+02
1214 1 4.11524411715454278e+02
1215 1 6.63568339917550020e+02
1216 1 1.29717892399835790e+02
1217 1 6.46718686395092391e+02
1218 1 1.21432018606971064e+03
1219 1 9.73016927959411646e+02
1220 1 5.40217260581011942e+01
1221 1 -9.98667359223027091e+01
1222 1 -3.34700747493938707e+02
1223 1 2.50499133933358394e+02
1224 1 4.36190506503256188e+02
1225 1 2.36278019589633203e+02
1226 1 -2.34484616573177220e+02
1227 1 -3.59209241972722069e+01
1228 1 -3.73225363069770822e+02
1229 1 2.39233872115383792e+03
1230 1 -1.95727804978719576e+02
1231 1 -1.45133317299731084e+03
1232 1 -6.29295157293193256e+02
1233 1 -7.82209349504632428e+02
1234 1 -5.50163587788862742e+02
1235 1 -7.33805120514274222e+02
1236 1 -3.20789002775558856e+02
1237 1 -3.57394729961780570e+02
1238 1 -2.63749105891517559e+02
1239 1 -3.39696324459040966e+02
1240 1 -6.61938476084504032e+02
1241 1 -8.45497520510088634e+02
1242 1 -6.43263102716784033e+02
1243 1 -3.08738607327261775e+02
1244 1 -4.01685865837181382e+02
1245 1 1.67105080471996246e+02
1246 1 9.50526528493313663e+02
1247 1 3.03009653979778193e+02
1248 1 4.60384614974585816e+02
1249 1 7.31617468715753489e+02
1250 1 6.62211740147761134e+02
1251 1 1.23481334083660755e+02
1252 1 -1.97852508492081796e+02
1253 1 -2.41218211090933892e+02
1254 1 -2.18630819800487131e+02
1255 1 -8.79956931434923376e+02
1256 1 -1.30853891350269834e+02
1257 1 1.39126576140331082e+02
1258 1 -6.52874198041015763e-01
1259 1 1.09470564985379273e+01
1260 1 2.78635852730415536e+02
1261 1 -8.91627922076695540e+01
1262 1 -7.32752789709237407e-01
1263 1 -2.54638336571132449e+01
1264 1 -1.21353431868658149e+02
1265 1 -1.94012221856063974e+02
1266 1 -4.04198724411477812e+01
1267 1 -2.19406869044973888e+02
1268 1 -6.32778786604829264e+01
1269 1 -2.03642768242187884e+02
1270 1 -1.50675492245655054e+01
1271 1 -1.76248755043368050e+02
1272 1 8.96501281886226877e+01
1273 1 -5.56741245170564298e+02
1274 1 -7.44305045544580821e+01
1275 1 5.06353028341591838e+01
1276 1 7.15095030681924442e+01
1277 1 2.87741326915414902e+02
1278 1 2.42246279494488505e+02
1279 1 3.45121694414868685e+01
1280 1 -2.48511877401288750e+01
1281 1 -4.98626479850148243e+01
1282 1 -8.37381187536735538e+00
1283 1 -5.77698523675518327e+00
1284 1 -5.29398601208719910e+01
1285 1 -1.18026829675039721e+02
1286 1 9.48780225745394468e+00
1287 1 1.29634192008464538e+02
1288 1 5.60802471080313353e+02
1289 1 3.15220712729738352e+02
1290 1 9.08020365948835888e+01
1291 1 1.33171216115472049e+02
1292 1 3.90017912144444495e+02
1293 1 2.50022124192349452e+02
1294 1 -2.22893811976475149e+01
1295 1 -5.72117310648530903e+01
1296 1 2.73805240469603106e+00
1297 1 1.80849189645704712e+02
1298 1 6.28183142999950405e+02
1299 1 -4.00128487340821380e+02
1300 1 -1.97142436314655953e+02
1301 1 1.32515044831429668e+03
1302 1 -3.31057851703160622e+03
1303 1 5.73441238263339301e+02
1304 1 1.24841112203383886e+03
1305 1 6.62743373239584230e+02
1306 1 1.30959599266631244e+02
1307 1 7.25033000295600800e+01
1308 1 1.73746707836882621e+02
1309 1 9.29264909412477209e+01
1310 1 2.68141942454429852e+02
1311 1 2.93960818369001800e+02
1312 1 5.28689180440796008e+02
1313 1 7.68235538904461777e+01
1314 1 -8.66528974650770039e+01
1315 1 5.38726400432497101e+01
1316 1 -2.40081349578377512e+02
1317 1 -2.32295042805097864e+02
1318 1 -4.42203351779432055e+01
1319 1 -3.53909502679529623e+02
1320 1 -3.59963300068017531e+02
1321 1 -7.55229736521529560e+01
1322 1 -5.46320180806208214e+02
1323 1 -1.57254852534857187e-01
1324 1 -9.12151397547059446e+01
1325 1 7.20680505780232750e+01
1326 1 7.36703102821691544e+01
1327 1 5.93670912592660613e+01
1328 1 1.51089589332326312e+02
1329 1 2.24448626630867892e+02
1330 1 1.42251843173872828e+02
1331 1 2.14175113781478018e+02
1332 1 3.65340442041820893e+02
1333 1 3.04773952478448791e+02
1334 1 9.72762768776353965e+01
1335 1 1.14992054864020346e+02
1336 1 1.35620390310699463e+02
1337 1 -8.29892636222107711e+01
1338 1 3.92225007440678155e+01
1339 1 6.61113723462698886e+01
1340 1 2.56794666634332486e+02
1341 1 2.99217974518335836e+02
1342 1 1.07294180745642542e+01
1343 1 -8.86758646805643735e+01
1344 1 -5.07161891610000239e+01
1345 1 1.43903118335230289e+02
1346 1 1.08073788865531199e+02
1347 1 1.49494741731100760e+02
1348 1 1.13877290074098312e+02
1349 1 1.12465169661578088e+02
1350 1 1.54103745739483628e+02
1351 1 -2.55261060552382389e+02
1352 1 -3.92902501559748032e+01
1353 1 2.61568716754143864e+01
1354 1 2.85127494911877761e+01
1355 1 -1.09510131720879940e+02
1356 1 -3.39325127298818131e+02
1357 1 -3.24764318623716179e+02
1358 1 -1.06502841805945195e+03
1359 1 2.77787233451492597e+01
1360 1 -8.85656980115535362e+01
1361 1 -6.19944030578181696e+02
1362 1 -2.90000016411198601e+02
1363 1 -3.70548951528486668e+02
1364 1 -1.94608984209223053e+02
1365 1 -3.06572367064614582e+02
1366 1 -5.34535910450562938e+02
1367 1 -3.96451473228371754e+02
1368 1 -5.64880818588558895e+02
1369 1 -6.66346660736114018e+02
1370 1 -5.36882249158114519e+02
1371 1 -9.72591073735576401e+02
1372 1 -2.64208837461536996e+03
1373 1 1.50017400689480610e+03
1374 1 -3.06011309452432423e+00
1375 1 3.62803910312392475e+02
1376 1 1.26590944042828966e+02
1377 1 -4.24601597329667356e+02
1378 1 -1.42624450719777110e+03
1379 1 -4.73211391148954760e+02
1380 1 -2.68509815876041159e+02
1381 1 -6.51045548159513714e+02
1382 1 5.95348310292882047e+02
1383 1 1.73664565303682167e+02
1384 1 6.07018255066869756e+02
1385 1 5.96971973290570688e+01
1386 1 3.19033384363340986e+02
1387 1 4.57223498940243701e+02
1388 1 5.96923653853518545e+02
1389 1 -2.36745474671164857e+03
1390 1 1.93067207096484685e+03
1391 1 5.78956225551542190e+01
1392 1 2.08780645431551676e+02
1393 1 1.65228189913878310e+02
1394 1 3.08527323436563904e+02
1395 1 1.97112499152078556e+02
1396 1 3.91493038643987120e+02
1397 1 7.00055570312891632e+02
1398 1 -8.92097402022918651e+00
1399 1 6.26381507921763045e+01
1400 1 6.70670131386006716e+01
1401 1 -2.18786702083481224e+01
1402 1 -6.05770342124724621e+01
1403 1 -8.35017507739651279e+01
1404 1 7.11209156037108841e+01
1405 1 5.69507584075565809e+00
1406 1 -3.35278548980926985e+02
1407 1 2.08597341904074369e+02
1408 1 -6.76935749482407005e+02
1409 1 -5.48214798656834887e+02
1410 1 -3.52961209018863826e+02
1411 1 -5.19509696381672256e+02
1412 1 -1.96581278816174176e+02
1413 1 -1.03309682164000674e+03
1414 1 -1.12501169966000660e+02
1415 1 -6.16833460988814750e+02
1416 1 -4.81684322928119968e+02
1417 1 -4.91710500989914976e+02
1418 1 1.75054387230207084e+02
1419 1 -1.69297655020600769e+03
1420 1 -2.06654420652534895e+02
1421 1 2.55833667757703637e+02
1422 1 5.42772023600201578e+02
1423 1 1.09329476323204494e+03
1424 1 6.29667932904027680e+02
1425 1 1.24767204915146840e+03
1426 1 -2.74867358260672972e+03
1427 1 -7.69245698264037259e+01
1428 1 -1.61119953577636110e+01
1429 1 -1.22336957355630418e+02
1430 1 -2.38878340436961679e+02
1431 1 -2.36936316695546537e+02
1432 1 -1.88447122044269442e+01
1433 1 -1.12486987220615151e+03
1434 1 -2.24685426250059805e+02
1435 1 7.29833903431102442e+01
1436 1 -1.10094596514231551e+01
1437 1 -8.46047601789275916e+01
1438 1 4.62355620971706685e+02
1439 1 7.71434747635925646e+01
1440 1 3.84655730611495938e+00
1441 1 5.10745707238318474e+01
1442 1 -1.88398264841555090e+02
1443 1 -2.79862436562582673e+02
1444 1 7.71897189583353622e+01
1445 1 8.74412849332062478e+01
1446 1 1.74747139457824488e+02
1447 1 3.07961196314641484e+02
1448 1 1.37903197576786880e+02
1449 1 2.90226022642221380e+02
1450 1 1.48642180171832166e+02
1451 1 8.42749663295187474e+01
1452 1 1.01918418157726919e+02
1453 1 5.90236156333059583e+01
1454 1 2.06315096155237399e+02
1455 1 1.90659790038556650e+02
1456 1 1.48859638078190727e+02
1457 1 8.65308486883268699e+01
1458 1 5.17886406989068107e+01
1459 1 5.81002000887523948e+01
1460 1 4.43292526751867371e+01
1461 1 6.01111356085822663e+01
1462 1 -6.01809333924688961e+00
1463 1 6.36319723176309537e+01
1464 1 5.18512551134796382e+01
1465 1 1.13865520196318897e+02
1466 1 -1.02695062115491851e+02
1467 1 8.11220678064058660e+01
1468 1 1.57728159464253451e+02
1469 1 6.14234816065829961e+01
1470 1 -2.68841590309410549e+02
1471 1 1.99772395894986516e+02
1472 1 -2.84645970638339918e+02
1473 1 -1.13432049660486811e+02
1474 1 -2.38115014578905942e+02
1475 1 -1.20176079392402713e+02
1476 1 -1.51289203406626939e+02
1477 1 -7.45708142637050120e+00
1478 1 -6.50871921945287255e+01
1479 1 -7.88635755657445259e+01
1480 1 5.44301997239188466e+01
1481 1 5.56525496251943892e+01
1482 1 -2.92353888285569186e+00
1483 1 6.67319391279039387e-01
1484 1 4.65770967086334267e+01
1485 1 -9.68678862015756010e+01
1486 1 -9.37293765660845111e+01
1487 1 -1.71999360395804842e+02
1488 1 -1.52428218405377180e+02
1489 1 -5.42507102889397430e+01
1490 1 1.36390334227323365e+02
1491 1 4.67693704544968014e+01
1492 1 3.98449515292073855e+01
1493 1 5.26028720112758066e+01
1494 1 -3.75784514528845293e+00
1495 1 -4.62118611135700462e+02
1496 1 4.78587181138701965e+02
1497 1 2.77741692348419519e+02
1498 1 1.50823078229813603e+02
1499 1 -4.34152713453161851e+01
1500 1 5.11500493628924403e+02
1501 1 -1.32514976218135104e+02
1502 1 2.57334649112099169e+03
1503 1 -1.52582263737825173e+02
1504 1 -1.75687752867200811e+03
1505 1 -3.22302758927201978e+02
1506 1 -8.69095590704615688e+01
1507 1 -8.35944468345362139e+01
1508 1 5.31801298899863696e+02
1509 1 -3.30770992951145672e+02
1510 1 -3.33248691773105747e+02
1511 1 2.92598186757718821e+01
1512 1 -3.43671457307897787e+00
1513 1 -8.43169013483828564e+01
1514 1 -3.09436869560715820e+02
1515 1 -1.49239291910339216e+03
1516 1 -6.88245767746754836e+02
1517 1 -4.25503060732632775e+02
1518 1 -8.85972456738755341e+02
1519 1 -1.71414385383970875e+03
1520 1 -7.36556601328303827e+02
1521 1 -4.45431145670048807e+02
1522 1 -4.17262037975042801e+02
1523 1 -9.64047650663766490e+02
1524 1 -6.31642124500782984e+02
1525 1 -8.31693432859330528e+01
1526 1 -1.58361111155759886e+02
1527 1 -1.27434802832975620e+02
1528 1 -2.88473244951592221e+02
1529 1 -7.70573617300850913e+01
1530 1 4.57807487159825399e+01
1531 1 1.50167499151354377e+02
1532 1 2.73705823013123620e+02
1533 1 -1.53306604383569947e+02
1534 1 -6.14564691910310259e+01
1535 1 2.75141769586670137e+02
1536 1 6.11324882311539000e+02
1537 1 -1.46180504787179029e+01
1538 1 -1.69488803528251765e+02
1539 1 1.14627168828344779e+02
1540 1 3.02177104575560591e+01
1541 1 1.98108919554646690e+02
1542 1 3.58685879899499639e+02
1543 1 -4.36630840800606350e+01
1544 1 1.94051229920011565e+02
1545 1 1.83801879813990581e+02
1546 1 6.41402946882159597e+01
1547 1 1.38894745150362581e+02
1548 1 -6.14631640840784677e+00
1549 1 4.06525522520056057e+01
1550 1 -7.50421962789801569e+01
1551 1 4.30353129215170156e+02
1552 1 3.95276792069394276e+02
1553 1 4.43763235770539268e+02
1554 1 3.38256004120037744e+02
1555 1 3.88254287667937774e+02
1556 1 2.41431924222660172e+02
1557 1 2.76584781900427970e+02
1558 1 6.47425962589456550e+00
1559 1 -1.31243415519371024e+03
1560 1 -1.49842716109416028e+03
1561 1 -3.89280459897481296e+03
1562 1 -3.26667370850205202e+02
1563 1 -1.63216558051978780e+02
1564 1 4.03653815920625277e+02
1565 1 -4.69291892286812640e+02
1566 1 -8.47015345059385140e+02
1567 1 1.75776522505817894e+02
1568 1 1.38062044346910398e+02
1569 1 -9.28230254589414244e+02
1570 1 1.93032140431139283e+03
1571 1 4.12880529657982208e+02
1572 1 6.47179810035646142e+02
1573 1 4.06573608069850650e+02
1574 1 -2.18464736867092626e+02
1575 1 -1.02969750311962372e+02
1576 1 1.32750772049406146e+03
1577 1 1.61573977843962126e+02
1578 1 -9.29431601123519187e+01
1579 1 2.31876333635125121e+02
1580 1 -1.57970287682837068e+02
1581 1 -7.70425101272540701e+02
1582 1 -3.14394711847643475e+03
1583 1 -2.69539916144495464e+02
1584 1 -5.68795740601061993e+02
1585 1 3.56961435777765246e+01
1586 1 -1.61858300177665274e+03
1587 1 -7.34865718523163309e+02
1588 1 2.81304684507300976e+02
1589 1 -3.04647695643941597e+03
1590 1 2.44312102843453545e+02
1591 1 1.39080618826827532e+02
1592 1 -2.50028162428015648e+01
1593 1 -1.64666803372612748e+02
1594 1 1.50775497472231681e+01
1595 1 8.95268931175793483e+01
1596 1 9.04187151695698219e+01
1597 1 5.34093984462927196e+01
1598 1 1.44324496939507389e+03
1599 1 -4.35435421210813232e+01
1600 1 -4.38881461111863302e+01
1601 1 3.24113451982275421e+02
1602 1 7.51276676557155270e+02
1603 1 2.66878066105192374e+02
1604 1 6.04020098218359465e+01
1605 1 3.75328248007093919e+02
1606 1 -1.21640658960705366e+02
1607 1 1.02888192889591232e+03
1608 1 3.07702297868063908e+02
1609 1 2.71114299127445008e+02
1610 1 2.45847426303607449e+02
1611 1 4.45282068795869861e+02
1612 1 1.97725964390543538e+02
1613 1 2.02950840591073779e+03
1614 1 7.02866616639398785e+02
1615 1 -8.59686888921325334e+01
1616 1 -4.55513951204284467e+02
1617 1 1.13988832433703863e+02
1618 1 4.96875058154560975e+02
1619 1 1.20679122042415838e+03
1620 1 6.42791075825374946e+02
1621 1 2.66084690565254562e+02
1622 1 -7.39101931794643519e+02
1623 1 -2.32310795224243776e+02
1624 1 -3.87744336745278758e+02
1625 1 -4.13584204656154554e+02
1626 1 -6.38292528089443067e+02
1627 1 -6.99787208697391520e+02
1628 1 -8.56496445380496425e+02
1629 1 -4.82159018210334523e+02
1630 1 -8.63398142309538798e+02
1631 1 -2.86339881170397916e+02
1632 1 -1.66060317090448962e+03
1633 1 -1.00721851703436039e+03
1634 1 -3.94248996577072660e+02
1635 1 1.62814920661394922e+02
1636 1 2.84354994768371157e+01
1637 1 -9.36847181641467870e+01
1638 1 -1.14903619586927320e+02
1639 1 -2.12234321203520324e+02
1640 1 6.92291290377851709e+01
1641 1 -3.78698256900048520e+01
1642 1 7.28514701107954465e+01
1643 1 6.23605332470607276e+00
1644 1 -5.89886316120368633e+02
1645 1 -3.79572671546089111e+02
1646 1 3.47931169091560690e+01
1647 1 -3.05353211907143312e+01
1648 1 -1.17750372956423391e+02
1649 1 -2.04254215314205254e+02
1650 1 3.30013797853884583e+01
1651 1 -2.90933810445571517e+01
1652 1 4.07824484310381621e+01
1653 1 2.69032626792618323e+01
1654 1 8.18969038398628157e+01
1655 1 5.80446060139824240e+01
1656 1 5.50970548003071130e+01
1657 1 8.10746244004889860e+01
1658 1 4.76453711765839998e+01
1659 1 5.61726172946835902e+01
1660 1 9.39225287153639812e+01
1661 1 8.74159900200733091e+01
1662 1 5.32490352242303473e+01
1663 1 6.78515790007232340e+01
1664 1 4.54815699699694491e+01
1665 1 4.15977936304803038e+01
1666 1 4.70584442980733400e+01
1667 1 2.13739798579779183e+01
1668 1 4.00314090681460115e+01
1669 1 4.47240038859001032e+01
1670 1 2.64888782514639516e+01
1671 1 2.57348756263449268e+01
1672 1 4.01122302855479020e+01
1673 1 7.32101483910115576e+01
1674 1 6.21582340514923928e+01
1675 1 5.01730105763546135e+01
1676 1 4.49415842049106899e+01
1677 1 3.93328999436338762e+01
1678 1 3.21817389119669528e+01
1679 1 3.54444365045199277e+01
1680 1 4.39611228186659702e+01
1681 1 5.01076471748535326e+01
1682 1 5.70143925499691164e+01
1683 1 1.02800187808047156e+02
1684 1 8.49709188898457910e+01
1685 1 5.17621683033119595e+01
1686 1 -2.69084164419572813e+00
1687 1 -3.23941386336068931e+01
1688 1 -1.00420404633412829e+02
1689 1 1.07202403355791660e+02
1690 1 1.31609103123878754e+02
1691 1 8.45140681045377988e+01
1692 1 3.98528421984049217e+01
1693 1 2.93846831134947536e+02
1694 1 2.09417965614437037e+02
1695 1 1.72049760178510269e+02
1696 1 7.08899868741034709e+01
1697 1 1.76227044315888406e+02
1698 1 3.67580706881579715e+01
1699 1 9.41665266254323683e+01
1700 1 4.00146918907055280e+01
1701 1 9.68573218423777860e+01
1702 1 1.08522975563736370e+01
1703 1 3.71145171161466578e+02
1704 1 2.74225333311059273e+02
1705 1 4.35239691245634560e+02
1706 1 2.33043562842128176e+03
1707 1 8.16357538076238484e+02
1708 1 4.21897163217752393e+02
1709 1 9.30507796304243698e+02
1710 1 5.31574815350098675e+02
1711 1 3.10366562610386040e+02
1712 1 1.46978080515484862e+02
1713 1 1.75791983855490912e+01
1714 1 6.52989811870050858e+02
1715 1 -1.69138912048506072e+01
1716 1 3.64186335096212190e+02
1717 1 4.66347223677340310e+02
1718 1 -1.05411011316602821e+03
1719 1 1.35530155241830414e+02
1720 1 1.64015473410071763e+02
1721 1 1.61457460309221204e+02
1722 1 4.43749936255362272e+01
1723 1 8.90185883788276584e+01
1724 1 -1.96286689733013361e+02
1725 1 -2.70894045359311633e+02
1726 1 -5.78627718539078515e+01
1727 1 4.62201968662851186e+02
1728 1 3.87617388275777230e+00
1729 1 -8.15212246773912455e+01
1730 1 -3.94295446029663196e+02
1731 1 1.31899737622374630e+02
1732 1 -2.90636989365898989e+03
1733 1 -2.33109517524619008e+02
1734 1 -4.34552955165132335e+03
1735 1 -1.01230248570731163e+02
1736 1 6.34654144571337952e+02
1737 1 2.18280779227355936e+02
1738 1 2.41264237911216028e+01
1739 1 -8.64538288354408024e+01
1740 1 -3.91660537320053550e+02
1741 1 2.30275185220817093e+02
1742 1 4.56502209884083584e+02
1743 1 -4.35710553583025995e+00
1744 1 -3.30465293893694763e+02
1745 1 5.41369352175098584e+02
1746 1 -5.77004496191367480e+02
1747 1 -7.26398448473932490e+02
1748 1 -1.26549450838736652e+03
1749 1 -3.47200237885363322e+02
1750 1 2.27576439388670337e+02
1751 1 -2.31552132295449667e+02
1752 1 3.63396382456779499e+00
1753 1 -1.90306258671804187e+01
1754 1 6.06068720382693726e+01
1755 1 -2.09612978365112639e+01
1756 1 1.34489877523665537e+01
1757 1 1.54355660133811341e+02
1758 1 6.94063833026934560e+01
1759 1 -7.08305853077020089e+01
1760 1 -1.83242936744887928e+01
1761 1 -3.12576138026683594e+01
1762 1 3.53114434925449956e+01
1763 1 4.29570047058746241e+01
1764 1 3.83617894583531651e+01
1765 1 1.86766578575293067e+02
1766 1 1.27923718628373834e+02
1767 1 1.09125935379731459e+02
1768 1 1.47006867213039669e+02
1769 1 1.15763770510168811e+02
1770 1 7.48792068529069041e+01
1771 1 1.65164219105527877e+02
1772 1 3.13767330296343346e+02
1773 1 5.46758055304460527e+02
1774 1 3.51986858447939255e+02
1775 1 2.06126014909955103e+02
1776 1 3.19989128159381892e+02
1777 1 2.25263150479787043e+02
1778 1 2.34768917900615463e+02
1779 1 2.78052490096145959e+02
1780 1 2.28282376686087446e+02
1781 1 2.87942528359767607e+02
1782 1 3.94128446250739273e+02
1783 1 1.64849527577452506e+02
1784 1 1.50790137535103810e+02
1785 1 1.79148445124279817e+02
1786 1 1.95172348357516199e+02
1787 1 1.37797315689097758e+02
1788 1 1.60312910174132583e+02
1789 1 1.00475748179687685e+02
1790 1 1.25189780066651181e+02
1791 1 1.47146324712113596e+02
1792 1 7.21443387539715673e+01
1793 1 1.79146222908666857e+02
1794 1 -2.00723257418808991e+01
1795 1 1.25800656567398676e+02
1796 1 1.14123653090815708e+02
1797 1 9.95850342381201727e+01
1798 1 7.49394787824885213e+01
1799 1 8.35347542895232067e+01
1800 1 9.47618350108809011e+01
1801 1 8.29599319057392677e+01
1802 1 8.40470071576771147e+01
1803 1 4.70294215952028765e+01
1804 1 6.07370927906568809e+01
1805 1 7.00814526055211644e+01
1806 1 5.55199001068367011e+01
1807 1 6.11298200924685275e+01
1808 1 6.43049323236082131e+01
1809 1 5.13809561229699980e+01
1810 1 5.65663811299204298e+01
1811 1 6.79971885589124270e+01
1812 1 5.94208239223522057e+01
1813 1 6.44437541893890113e+01
1814 1 4.45785565769394125e+01
1815 1 5.06750089700433435e+01
1816 1 4.54035883868100711e+01
1817 1 4.93419313805521327e+01
1818 1 4.34003122434902338e+01
1819 1 5.17953127281129468e+01
1820 1 5.69641669993195165e+01
1821 1 5.23795276604342988e+01
1822 1 5.50863057050236122e+01
1823 1 5.25621679795215968e+01
1824 1 3.93693515350348449e+01
1825 1 4.65652122491157670e+01
1826 1 4.72108013110414291e+01
1827 1 3.89129218190709807e+01
1828 1 4.30300799835191157e+01
1829 1 4.03845295209954642e+01
1830 1 4.09482456241298749e+01
1831 1 4.01604411612584400e+01
1832 1 3.24296250003948074e+01
1833 1 3.59348814933310834e+01
1834 1 3.55841643069220481e+01
1835 1 3.25034959744644354e+01
1836 1 2.28501289908465246e+01
1837 1 3.10788130809779943e+01
1838 1 3.19928756146908100e+01
1839 1 2.56512018811237041e+01
1840 1 2.68149773224728314e+01
1841 1 2.91054741942505508e+01
1842 1 2.82385220562771266e+01
1843 1 2.74372769791564153e+01
1844 1 2.52586923445543690e+01
1845 1 1.96922884225923518e+01
1846 1 2.23082443434891644e+01
1847 1 2.24058220435106143e+01
1848 1 1.42698950011063577e+01
1849 1 1.81076008025180535e+01
1850 1 3.50538824094034496e+01
1851 1 4.10598431578160827e+01
1852 1 3.93622656362995897e+01
1853 1 4.43952453611733873e+01
1854 1 4.24647242677720627e+01
1855 1 4.82144472013874292e+01
1856 1 3.65431710216445609e+01
1857 1 3.59482357786017559e+01
1858 1 3.82112915429477340e+01
1859 1 3.37969622414793207e+01
1860 1 3.19102913764222365e+01
1861 1 3.45924068383273422e+01
1862 1 4.62657147006884486e+01
1863 1 3.67523221786957848e+01
1864 1 3.91675164888615512e+01
1865 1 3.78616883872626104e+01
1866 1 3.80258005283968288e+01
1867 1 3.47570697236069464e+01
1868 1 3.36217084272464177e+01
1869 1 4.07446655563090019e+01
1870 1 4.07545045121269425e+01
1871 1 3.69113286655218147e+01
1872 1 3.55823006960154302e+01
1873 1 3.60770851350613171e+01
1874 1 3.51461786874286801e+01
1875 1 3.48690418737110974e+01
1876 1 3.80907302162803916e+01
1877 1 3.44639337746336452e+01
1878 1 3.24814670666034289e+01
1879 1 3.70143481175430082e+01
1880 1 3.26260746292178823e+01
1881 1 2.86787725128631052e+01
1882 1 4.78103164633700501e+01
1883 1 4.98989296061526701e+01
1884 1 4.29985894415948877e+01
1885 1 4.37013089719463608e+01
1886 1 5.83172887847906480e+01
1887 1 5.13963810875884022e+01
1888 1 6.07711125846612319e+01
1889 1 5.40009247819567477e+01
1890 1 6.84919450777792775e+01
1891 1 6.88625096065336066e+01
1892 1 7.30698224202917146e+01
1893 1 6.03811776539216112e+01
1894 1 5.51858357295231201e+01
1895 1 4.72805125925234222e+01
1896 1 5.45023478471903715e+01
1897 1 9.01822682239430833e+01
1898 1 8.48167808792979088e+01
1899 1 1.10952450414471016e+02
1900 1 9.47780904222700116e+01
1901 1 1.04434497013254372e+02
1902 1 7.84653048463664078e+01
1903 1 1.30192810129690713e+02
1904 1 3.94907461954227585e+01
1905 1 4.63379787704055772e+01
1906 1 4.91583766451136484e+01
1907 1 3.69063597901905140e+01
1908 1 2.44375786133128436e-01
1909 1 1.83532924654106964e+01
1910 1 2.23012736254370765e+01
1911 1 3.05308826140354199e+01
1912 1 2.53476977914716421e+01
1913 1 2.89039365380968434e+01
1914 1 3.06058475135220220e+01
1915 1 2.61080691699090046e+01
1916 1 3.41996102908572723e+01
1917 1 4.16760563999712659e+01
1918 1 1.59811695409826626e+01
1919 1 1.80772752364702960e+01
1920 1 2.35018315166841560e+01
1921 1 2.18290246217596753e+01
1922 1 3.12823574152752677e+01
1923 1 9.54278295359520712e+00
1924 1 7.05241082454421875e+00
1925 1 -3.68766420806798365e+01
1926 1 -1.23392761235499897e+01
1927 1 -2.85620264794501288e+00
1928 1 -1.33547227574151748e+01
1929 1 2.71631802310277903e+00
1930 1 1.10773805061552189e+01
1931 1 1.27819971406256609e+01
1932 1 1.16620302210564493e+01
1933 1 -1.18842574761649988e+01
1934 1 4.61509440509863378e+00
1935 1 -1.89716118894920811e+01
1936 1 -9.42378074600491367e+00
1937 1 2.11087272382956037e+01
1938 1 -5.05547941521343858e-01
1939 1 4.15182677812347922e+00
1940 1 4.24216024667684710e+00
1941 1 2.19749984027689607e+01
1942 1 1.15339906979961722e+01
1943 1 1.69735442259840532e+01
1944 1 1.02901461350161583e+01
1945 1 -6.91916783999731155e+00
1946 1 -5.44542196037814641e+00
1947 1 -4.51227929119598969e-01
1948 1 1.66099369329619790e+01
1949 1 -2.86999481440841109e+01
1950 1 -2.43257015827719165e+01
1951 1 -1.80971142890340211e+01
1952 1 -2.52854975669984050e+01
1953 1 -2.42138343271003933e+01
1954 1 -1.43059761904882841e+01
1955 1 -4.99302694163656824e+01
1956 1 -3.65974516338902731e+01
1957 1 -3.60744804019741565e+01
1958 1 -3.60381644540494079e+01
1959 1 -4.42636925410277513e+01
1960 1 -5.32016324409987504e+01
1961 1 -3.88236593899066378e+01
1962 1 -1.22600649678129130e+02
1963 1 -7.85309420654578787e+01
1964 1 -6.30164176491376367e+01
1965 1 -9.29367655743970431e+01
1966 1 -6.40650977165593076e+01
1967 1 -7.28113289250705833e+01
1968 1 -5.14882109774305050e+01
1969 1 -3.09894850596098870e+01
1970 1 -6.91006989420624649e+01
1971 1 -4.86692295086916005e+01
1972 1 -3.94734299289012398e+01
1973 1 -1.96015176534984583e+01
1974 1 -2.95561468066037705e+01
1975 1 -3.06262254719917699e+01
1976 1 -1.89557738805578104e+01
1977 1 -1.39113955983173589e+01
1978 1 -1.70927070322635934e+01
1979 1 -2.54739156461483311e+01
1980 1 -1.99518347596767853e+01
1981 1 -7.87558954697532876e+00
1982 1 -1.19805126139890827e+01
1983 1 -1.89381412945770684e+01
1984 1 -1.33483862186390105e+01
1985 1 -7.33633150136525369e+00
1986 1 -8.03327753772826547e+00
1987 1 -8.80947419971497503e+00
1988 1 -4.61213284406584734e+00
1989 1 -6.22094656691759962e+00
1990 1 -3.58928312809098893e+00
1991 1 -4.90548595451736613e+00
1992 1 -3.44568645582945043e+00
1993 1 -2.39723576421451057e+00
1994 1 -2.30354626173915555e+00
1995 1 -1.14718210780264513e+01
1996 1 -1.15965133035682797e+01
1997 1 -1.46428697408341169e+00
1998 1 -5.87253587997856741e+00
1999 1 -7.51671496918380466e+00
2000 1 -1.21594767378200963e+01
2001 1 -1.18848123569850355e+01
2002 1 -7.64960255802521605e+00
2003 1 -3.09777606323383470e+00
2004 1 -3.87522509577822705e+00
2005 1 4.55434096795944154e-01
2006 1 -5.72049473621649174e+00
2007 1 -1.49850784687016270e+00
2008 1 -9.90230196412405661e+00
2009 1 -6.64556408829952350e+00
2010 1 4.68066054020216882e+00
2011 1 8.03886735933669883e+00
2012 1 1.23852876389939066e+01
2013 1 1.61452665230393286e+01
2014 1 1.72285297967271340e+01
2015 1 1.43734886225382947e+01
2016 1 1.43279431019387964e+01
2017 1 1.14203344835496967e+01
2018 1 1.01479458007435230e+01
2019 1 7.04520521276463274e+00
2020 1 8.90058225650289536e+00
2021 1 3.51389009373323136e+00
2022 1 4.28743918073549235e+00
2023 1 1.37611519214989486e+00
2024 1 4.86506524282820027e-02
2025 1 -2.90553684569929860e-01
2026 1 -3.33993879437018348e+00
2027 1 -2.72010708381177713e+00
2028 1 -1.81656369679601615e+00
2029 1 -2.47170176075606696e+00
2030 1 1.42386316345578212e+01
2031 1 -3.66040007801879108e+00
2032 1 -3.63405948372576804e+00
2033 1 -5.12964162958932146e+00
2034 1 -5.88120451679977041e+00
2035 1 -3.13075732677321561e+00
2036 1 -3.01775106751537647e+00
2037 1 -3.07961355368786061e+00
2038 1 -1.49836958979393775e+00
2039 1 -1.94954682605320939e+00
2040 1 5.30301251741266011e+00
2041 1 9.80959136817489963e+00
2042 1 6.60983081124132354e+00
2043 1 1.11339069443570935e+01
2044 1 1.55204463689985097e+01
2045 1 1.11251505209622827e+01
2046 1 4.12543854235400342e+00
2047 1 1.00377022678570138e+00
2048 1 2.66618936876736101e-01
2049 1 1.66093836362237148e+01
2050 1 1.98502393143610760e+01
2051 1 9.22855137332428299e+00
2052 1 6.19975647232518234e+00
2053 1 5.06750528887449647e+00
2054 1 -2.99921105446989644e+00
2055 1 -1.65441653351875075e+01
2056 1 -8.33281058785904349e+00
2057 1 -1.05812115230629438e+01
2058 1 -1.50554763698823706e+01
2059 1 -1.85131390664627560e+01
2060 1 -2.38341146969071538e+01
2061 1 3.63429864512054124e+01
2062 1 3.34249080770500555e+01
2063 1 2.80380275561769032e+01
2064 1 2.98647608864885399e+01
2065 1 2.56588188065602338e+01
2066 1 2.12560501294850752e+01
2067 1 2.28908828887426310e+01
2068 1 1.75790305484966183e+01
2069 1 2.50664497243046469e+01
2070 1 2.56893296540798524e+01
2071 1 3.55784927131504460e+01
2072 1 6.17860723082966601e+01
2073 1 6.20938277679749504e+01
2074 1 7.17192096934722940e+01
2075 1 6.94781575993701210e+01
2076 1 6.28966289386275292e+01
2077 1 6.43982780216872044e+01
2078 1 5.77372661949827304e+01
2079 1 7.16438805490019490e+01
2080 1 7.59530437243165011e+01
2081 1 4.28862810574293292e+01
2082 1 7.43089302767551914e+01
2083 1 7.61809807599645552e+01
2084 1 1.09443217320902946e+02
2085 1 9.47323243944123732e+01
2086 1 9.31282436452375038e+01
2087 1 1.36631435050453234e+02
2088 1 1.44473314962952429e+02
2089 1 2.12871016378456545e+02
2090 1 1.98137883953578921e+02
2091 1 1.71706841507303750e+02
2092 1 1.97139811831253525e+02
2093 1 2.90028929884802096e+02
2094 1 2.33500404618857033e+02
2095 1 3.04509326763185186e+02
2096 1 2.66270741005785737e+02
2097 1 3.46693266743602635e+02
2098 1 1.52423615579420527e+02
2099 1 1.04809013726385459e+02
2100 1 -2.08481373645472161e+02
2101 1 3.05103755340441978e+02
2102 1 1.42832035529852249e+02
2103 1 -4.99128018308052575e+01
2104 1 -3.80959003676550765e+01
2105 1 -1.15638823414752032e+01
2106 1 -4.31777689962166065e+01
2107 1 -1.05935429552093325e+02
2108 1 -7.48538233868569307e+01
2109 1 -7.09442130448059203e+01
2110 1 -6.95304564597666399e+02
2111 1 -2.52985453969402769e+01
2112 1 1.67070803128685384e+02
2113 1 8.51255865475577451e+01
2114 1 2.36770697357606934e+02
2115 1 2.65750135269697466e+02
2116 1 2.87652036050484753e+02
2117 1 2.53721190870654056e+02
2118 1 1.07540391264726068e+02
2119 1 1.64190603059665904e+02
2120 1 9.29180251537894009e+01
2121 1 1.08360458165403415e+02
2122 1 1.42015422625543266e+02
2123 1 9.45225496905138698e+01
2124 1 6.76098610243144122e+01
2125 1 1.00771679001593483e+02
2126 1 1.27539037459915377e+02
2127 1 5.91554316115688508e+01
2128 1 9.13829406380537677e+01
2129 1 -5.28408170770679817e+02
2130 1 3.20165907227991440e+01
2131 1 1.75878373346316891e+02
2132 1 8.10970572650489203e+02
2133 1 3.76588632843605467e+02
2134 1 4.31161938084707174e+02
2135 1 3.65905135772524090e+02
2136 1 4.57089025624980536e+02
2137 1 5.57056715763801435e+02
2138 1 2.35243708700303074e+02
2139 1 3.53408519269437079e+02
2140 1 3.21675852241322332e+02
2141 1 1.18853292908136973e+03
2142 1 -5.42327512430211414e+02
2143 1 8.43636894572169808e+02
2144 1 3.16750864052914903e+03
2145 1 -8.67054942235751923e+02
2146 1 3.59681607031162571e+02
2147 1 3.01904393565411510e+03
2148 1 -3.18359841404392728e+03
2149 1 -3.20576605270813479e+03
2150 1 4.54271242796035608e+01
2151 1 -1.47283659767036920e+03
2152 1 4.69533462726601442e+02
2153 1 -7.68212213494628600e+02
2154 1 -7.04359177468349571e+02
2155 1 -1.47974052374204575e+03
2156 1 -1.32526538166042496e+03
2157 1 -1.56413443633988641e+03
2158 1 -7.36819496296276043e+02
2159 1 -2.79453959168553001e+03
2160 1 2.41041267561437189e+03
2161 1 6.73729893796987881e+02
2162 1 8.21937380188112115e+02
2163 1 9.74892626320370368e+02
2164 1 -1.07450080022888815e+04
2165 1 -2.78967008205527463e+03
2166 1 5.14731753310084741e+02
2167 1 7.99308297228759272e+01
2168 1 2.53689743972993682e+02
2169 1 6.99697122537381091e+01
2170 1 2.33186294958262749e+02
2171 1 7.48400653571183767e+01
2172 1 4.72347686965000335e+00
2173 1 2.01361879565893531e+02
2174 1 2.88985779898722058e+02
2175 1 3.78246796417110886e+02
2176 1 3.46954601642276032e+02
2177 1 7.02516879985807918e+01
2178 1 1.00007334349260361e+02
2179 1 -2.69436649237980589e+02
2180 1 -7.96086203786927058e+01
2181 1 -9.42933124961757301e+01
2182 1 -2.60359997411182462e+02
2183 1 -2.43074343503720002e+02
2184 1 -2.09706586718636970e+02
2185 1 -2.80739600487311918e+02
2186 1 -5.15454431147140966e+01
2187 1 1.71823739761505294e+02
2188 1 7.96812214723147235e+02
2189 1 1.08682448707979029e+03
2190 1 9.58481502334217453e+02
2191 1 6.17280577009087438e+02
2192 1 3.69645685861124321e+02
2193 1 4.48854179209436893e+02
2194 1 5.12327083823319526e+02
2195 1 6.64367194811828199e+02
2196 1 6.70756565384487658e+02
2197 1 8.70648581540594591e+02
2198 1 3.74669098095985134e+02
2199 1 3.94620383578112580e+02
2200 1 3.06440481757045973e+02
2201 1 1.39880041150581746e+02
2202 1 2.78360600807427602e+02
2203 1 2.52654445554654700e+02
2204 1 1.35633605704688762e+02
2205 1 1.63057664306334857e+02
2206 1 2.38506140905923985e+02
2207 1 3.01763007942602371e+02
2208 1 2.43783406418059855e+02
2209 1 3.17922019825137667e+01
2210 1 8.46051236794036186e+01
2211 1 -1.59250431171708698e+02
2212 1 1.40289341284789316e+02
2213 1 2.39899043590642748e+02
2214 1 1.18038536145261943e+02
2215 1 2.39185761700963951e+02
2216 1 1.48387336893186529e+02
2217 1 1.59051271593092224e+02
2218 1 3.22159731897659682e+01
2219 1 1.18887354132747191e+02
2220 1 5.12972380691430089e+02
2221 1 2.33155141406690120e+02
2222 1 1.39633629391305362e+02
2223 1 6.65458851692830393e+01
2224 1 1.59262043983676222e+02
2225 1 2.10298138908820647e+02
2226 1 1.04076425230273003e+02
2227 1 8.78395754347749858e+00
2228 1 -4.57959191421071665e+01
2229 1 2.13298760222758256e+03
2230 1 3.80058302035912675e+02
2231 1 -3.86786989181263607e+03
2232 1 1.00210165995068644e+03
2233 1 -3.22626347917978023e+02
2234 1 -2.51528149211395629e+02
2235 1 -4.02428432385290364e+02
2236 1 -2.52722824627373370e+02
2237 1 -4.01581616043172076e+01
2238 1 3.89958938252724536e+01
2239 1 -7.68573882516954399e+01
2240 1 -1.08699676949145456e+02
2241 1 -7.84948202189452218e+01
2242 1 -3.74303600385503472e+01
2243 1 1.27461670771299794e+02
2244 1 2.04237606578011508e+02
2245 1 -1.29574345534945099e+01
2246 1 -1.77522345045451431e+01
2247 1 -2.48260463001484624e+02
2248 1 -7.35161463330217771e+02
2249 1 -4.04779309885742236e+02
2250 1 -2.04404549640490160e+02
2251 1 -4.70188911476482303e+02
2252 1 -8.99107167780491068e+01
2253 1 -2.19837161991563505e+02
2254 1 -2.89851632819957779e+01
2255 1 -3.07447367542039558e+02
2256 1 -3.83943355970736661e+02
2257 1 -1.09260488076754450e+03
2258 1 -1.97174111444222490e+02
2259 1 1.73454172643250587e+02
2260 1 3.38151378004092322e+01
2261 1 -5.48467780318719278e+01
2262 1 7.82440655925330191e+01
2263 1 -2.92257452576319743e+00
2264 1 -4.83482735881885901e+01
2265 1 8.81373721764291389e+01
2266 1 6.27960214357554776e+01
2267 1 3.60349185723237753e+01
2268 1 1.08433854968322805e+02
2269 1 1.18024181745606427e+02
2270 1 1.02610054940613111e+02
2271 1 7.25172727597679909e+01
2272 1 8.85997510347360731e+01
2273 1 1.31604061877666425e+02
2274 1 1.40644761981082326e+02
2275 1 1.12600479351177071e+02
2276 1 9.20993933726429361e+01
2277 1 7.90226669357382434e+01
2278 1 5.73005163665478676e+01
2279 1 6.76507627576235677e+01
2280 1 6.00221101938629147e+01
2281 1 6.68222586773745348e+01
2282 1 4.98474501448736973e+01
2283 1 2.99716610058599713e+01
2284 1 2.64302892666981037e+00
2285 1 6.29456456040111547e+01
2286 1 4.70711993174483965e+01
2287 1 5.41294861057846290e+01
2288 1 6.78803969605459372e+01
2289 1 6.73053557588981448e+01
2290 1 8.60695520378256020e+01
2291 1 8.71243169320359812e+01
2292 1 7.59125833334669267e+01
2293 1 8.30479191405051864e+01
2294 1 7.85470682708508861e+01
2295 1 9.53880970836703028e+01
2296 1 9.44830598998749736e+01
2297 1 -8.73367522189320766e+02
2298 1 -5.30167010689136646e+02
2299 1 -3.81139122640166363e+02
2300 1 -5.59463604304570708e+02
2301 1 -2.90944685071659364e+02
2302 1 -4.64961543917836877e+02
2303 1 -5.99935062190148074e+02
2304 1 -3.60734043884578568e+02
2305 1 -6.64726375524623336e+02
2306 1 -4.05136133586423341e+02
2307 1 -5.34266424511816581e+02
2308 1 -4.27567435161882713e+02
2309 1 -8.52947465825599807e+02
2310 1 -2.03146440465000160e+03
2311 1 -1.25584934826495214e+03
2312 1 -1.09133024020056564e+03
2313 1 -3.80759945411872479e+02
2314 1 -1.28125963419510776e+03
2315 1 -3.64873993139744144e+01
2316 1 -8.83096829082943735e+00
2317 1 9.06475971110234724e+00
2318 1 2.44655023038913946e+01
2319 1 1.76480853142613583e+01
2320 1 -5.09576537027534258e+01
2321 1 -4.95959364956457271e+00
2322 1 9.26599365401359343e+00
2323 1 2.40533675927316146e+01
2324 1 1.93545317294788468e+01
2325 1 1.71877332245388352e+01
2326 1 7.16017483311352887e+00
2327 1 3.21711938962463222e+01
2328 1 2.81163752128683946e+01
2329 1 2.43250268042048283e+01
2330 1 2.54106613155585919e+01
2331 1 2.91441266492738755e+01
2332 1 4.10860874767102544e+01
2333 1 4.68729978766870303e+01
2334 1 3.55089468043595531e+01
2335 1 3.60283722857324662e+01
2336 1 4.16828628535920487e+01
2337 1 5.03573063530667753e+01
2338 1 3.37459811051664360e+01
2339 1 4.75884231715126447e+01
2340 1 4.49860322052958352e+01
2341 1 5.42716880549835707e+01
2342 1 5.99817876774373531e+01
2343 1 6.21146188395814889e+01
2344 1 4.30066581088223217e+01
2345 1 3.05224480111221013e+01
2346 1 3.63582722790296273e+01
2347 1 4.26701012472821759e+01
2348 1 5.11718775311189233e+01
2349 1 3.15991292161666415e+01
2350 1 4.97529814902299421e+01
2351 1 5.72326673314954064e+01
2352 1 6.08011407464967988e+01
2353 1 6.47300492943729466e+01
2354 1 5.38603631061090837e+01
2355 1 5.12460229156887408e+01
2356 1 5.37829158087947192e+01
2357 1 5.67818619073698372e+01
2358 1 5.54410481332138829e+01
2359 1 6.11592249015352465e+01
2360 1 6.10157750408800013e+01
2361 1 6.17123447564788279e+01
2362 1 5.67169801452611466e+01
2363 1 -1.54049562320819184e+01
2364 1 1.02768686506857108e+02
2365 1 -8.54813031212963779e+02
2366 1 -7.44248452426461199e+02
2367 1 -1.32559384315027251e+03
2368 1 -6.49458589873368169e+02
2369 1 -1.25280477946253242e+02
2370 1 1.01881629426497810e+02
2371 1 1.70413108247649177e+02
2372 1 8.50167197751193697e+01
2373 1 3.36668587916876874e+01
2374 1 -7.46894206823834423e+01
2375 1 -8.36200945534822750e+01
2376 1 -1.55572206212352341e+02
2377 1 -1.00353111464035806e+02
2378 1 3.84265567428899002e-01
2379 1 1.18310870690991479e+02
2380 1 1.39632745089003350e+02
2381 1 1.73627360908983604e+02
2382 1 2.96504942637322642e+02
2383 1 1.81190459639954014e+02
2384 1 2.37788501627518855e+02
2385 1 1.45061527046723143e+02
2386 1 4.66142069660618915e+02
2387 1 -8.24683105876136295e+01
2388 1 1.91152681328028535e+02
2389 1 2.91026640198381642e+02
2390 1 1.22085199994844720e+03
2391 1 7.54608132381056407e+02
2392 1 2.99561971821058307e+02
2393 1 4.71806483040366743e+02
2394 1 8.37588086769243603e+01
2395 1 1.80088223873152685e+02
2396 1 5.21674723698681078e+02
2397 1 1.00129808747226051e+02
2398 1 3.07499166297587124e+02
2399 1 3.40721157844697302e+02
2400 1 2.67485795075910971e+02
2401 1 -8.75647910057786589e+01
2402 1 1.80191387803268441e+02
2403 1 1.95458604781365779e+02
2404 1 4.59391475072997295e+01
2405 1 5.23090678549669519e+02
2406 1 -8.64626896479188112e+00
2407 1 6.77151881421702058e+01
2408 1 2.78022735613593341e+02
2409 1 3.35924907283141863e+02
2410 1 -2.47017751778692123e+01
2411 1 -1.12165308826887809e+02
2412 1 -6.25686465070585314e+01
2413 1 -1.48254460099386307e+02
2414 1 -2.37999455229016746e+02
2415 1 2.13188886778904043e+03
2416 1 -4.22462874244038233e+02
2417 1 -2.72424082861568536e+02
2418 1 -2.57128946351178740e+02
2419 1 -6.87889659922049532e+02
2420 1 -2.79189510484223206e+02
2421 1 -4.17242081471477093e+02
2422 1 6.32033936541128085e+01
2423 1 -1.41889510734495133e+02
2424 1 -2.34271116390329581e+02
2425 1 -1.78611044275088858e+02
2426 1 3.64321084342552012e+02
2427 1 7.29120403877162403e+02
2428 1 1.10730322271854538e+03
2429 1 -4.39964193486041154e+02
2430 1 -5.84754393176524943e+01
2431 1 -7.18070788725183320e+01
2432 1 -4.98667138068237534e+02
2433 1 -1.61706700160285777e+03
2434 1 -6.46521452575545823e+02
2435 1 5.58107036164239730e+02
2436 1 7.68826587358894358e+02
2437 1 5.34263707509221746e+01
2438 1 6.72540601275523386e+02
2439 1 1.01808185578582754e+03
2440 1 4.07603574500499406e+02
2441 1 1.14762753780751638e+02
2442 1 1.77960867833399803e+01
2443 1 -1.18314633588787203e+02
2444 1 5.02057540960101889e+01
2445 1 2.04689237163891505e+02
2446 1 8.38645142479116998e+02
2447 1 5.13522461798624263e+01
2448 1 -4.72689431977288876e+01
2449 1 -8.53472549672550599e+02
2450 1 -6.21061645721031141e+02
2451 1 -4.16495865379029908e+01
2452 1 -2.00159581871545065e+01
2453 1 -1.38554552043532539e+02
2454 1 1.91548719204290052e+02
2455 1 1.89328863683022917e+02
2456 1 1.16893084042447441e+02
2457 1 1.39429767372871254e+02
2458 1 8.38370590549650387e+01
2459 1 6.79065738538822217e+01
2460 1 9.35650860808954974e+01
2461 1 1.55001235980225459e+02
2462 1 1.28397772218398529e+02
2463 1 3.06658134506267174e+02
2464 1 2.64740755841164287e+02
2465 1 3.42608989063072897e+02
2466 1 4.68344493339628116e+02
2467 1 3.50696766441219665e+02
2468 1 2.57479126720388535e+02
2469 1 2.26949369094887231e+02
2470 1 3.63510308459248222e+02
2471 1 1.36353322194470707e+02
2472 1 4.34074886414096909e+02
2473 1 3.14651623364957118e+02
2474 1 4.68536598919098140e+02
2475 1 -7.81222007005191585e+01
2476 1 -3.30271865767594193e+02
2477 1 -2.49188972040737866e+02
2478 1 -1.13278747552189074e+02
2479 1 2.42995872768260006e+03
2480 1 -2.64658257093657653e+02
2481 1 -1.75862411006214393e+03
2482 1 -1.56374186325062942e+03
2483 1 -1.18971746493105502e+03
2484 1 1.22932770616171751e+02
2485 1 1.82804553184526782e+02
2486 1 1.34415699069780459e+02
2487 1 1.89484629492604000e+02
2488 1 -1.38543323716606864e+02
2489 1 -8.26425383749062377e+01
2490 1 -6.70345244508634096e+02
2491 1 -5.82989678689255015e+02
2492 1 -3.85268594671029916e+02
2493 1 -1.71187416842312246e+02
2494 1 -1.64552257801002639e+02
2495 1 2.73716778592873311e+01
2496 1 -6.79371679592167084e+02
2497 1 -2.81110607582393257e+01
2498 1 8.25874564032940555e+01
2499 1 -2.34845591421479043e+02
2500 1 -1.98884498816848350e+02
2501 1 -9.98759708390076284e+00
2502 1 3.82287033998240872e+02
2503 1 2.74543809178192873e+02
2504 1 3.51800550733730745e+02
2505 1 4.50385290285468329e+02
2506 1 2.04079926576693083e+02
2507 1 2.53765993043249807e+02
2508 1 2.98626426060726260e+02
2509 1 2.31777852497203099e+02
2510 1 2.37590340353144171e+02
2511 1 2.07358455571801954e+02
2512 1 1.64526581372293180e+02
2513 1 2.07891414834941145e+02
2514 1 2.83887927031592824e+02
2515 1 2.93388088456172170e+02
2516 1 1.19082553419319737e+02
2517 1 -6.70879908133345708e+01
2518 1 1.17471688240373808e+02
2519 1 2.40297016898033917e+02
2520 1 6.13724077456312898e+02
2521 1 2.03916192833277421e+02
2522 1 8.84874517332792294e+01
2523 1 1.98520521431889989e+02
2524 1 2.13558145396352842e+02
2525 1 1.99688597116954895e+02
2526 1 2.16337324501533459e+02
2527 1 1.53943298828360497e+02
2528 1 2.02813648543303742e+02
2529 1 3.65233611437923969e+02
2530 1 3.14382582221285460e+01
2531 1 3.35817337404084313e+01
2532 1 3.90033288981465347e+01
2533 1 2.85005151878379763e+01
2534 1 -3.10067791014519223e+00
2535 1 -3.98330739675066070e+02
2536 1 -5.01697934549029924e+02
2537 1 -2.99341117785001074e+02
2538 1 -2.83730690810126077e+02
2539 1 -1.75381325035903217e+02
2540 1 -1.96772487096337613e+02
2541 1 -2.35073385909531481e+02
2542 1 -2.22900872795280492e+02
2543 1 -1.85248630493553122e+02
2544 1 -4.95980793499900230e+01
2545 1 -1.17128452894339546e+02
2546 1 -1.10646558618898947e+01
2547 1 -9.66242017865622870e+02
2548 1 -4.74397968028722744e+02
2549 1 -3.31411568471314752e+02
2550 1 2.07714536210551216e+02
2551 1 8.34903921662788377e+01
2552 1 -4.61749831537962763e+01
2553 1 7.29537731646578038e+01
2554 1 1.50334187433975558e+02
2555 1 6.72865890342970232e+01
2556 1 7.03071131927623583e+01
2557 1 5.45070996981264173e+01
2558 1 5.94026667223701494e+01
2559 1 6.30251830563699471e+01
2560 1 5.99151082198007359e+01
2561 1 7.96617943245966558e+01
2562 1 6.13858386901448512e+01
2563 1 6.92378435241824519e+01
2564 1 -1.30897177076878481e+01
2565 1 -1.70965577945230649e+01
2566 1 1.37467657009142670e+02
2567 1 5.24916152108087886e+01
2568 1 3.94622171241402242e+01
2569 1 3.32299996036531275e+03
2570 1 -1.83280105904045763e+03
2571 1 2.59906426930448447e+02
2572 1 -5.91989718048396973e+00
2573 1 -2.09344815735525435e+03
2574 1 -1.21512802379125787e+03
2575 1 -6.44502158630115787e+02
2576 1 -2.39288903680220130e+02
2577 1 -1.96028794549427374e+02
2578 1 1.66567327269995104e+02
2579 1 9.13084859247528158e+01
2580 1 1.22081466797098543e+02
2581 1 2.03767853938309031e+02
2582 1 6.78566372842182659e+02
2583 1 1.35118985838205390e+03
2584 1 8.12327191457352569e+02
2585 1 3.12978839729690492e+02
2586 1 5.11312490276299172e+02
2587 1 -3.34492326958547608e+02
2588 1 2.94889219530366120e+02
2589 1 6.68598684370832189e+02
2590 1 5.33204091065420016e+02
2591 1 1.28335615973258837e+03
2592 1 2.32823223290359721e+02
2593 1 5.53023553032993362e+01
2594 1 1.10823084566643232e+02
2595 1 1.02715927405979475e+01
2596 1 3.06119647513508426e+02
2597 1 5.37292533059494986e+02
2598 1 3.33438875286628843e+02
2599 1 7.23977434938296142e+02
2600 1 -1.21232723077234922e+02
2601 1 -1.03423178899164805e+03
2602 1 -4.80747976568506260e+02
2603 1 8.83217080553462665e+02
2604 1 -1.61488406813928009e+02
2605 1 -4.58058982937117321e+02
2606 1 -1.86645109538231111e+02
2607 1 -1.72958387334019328e+01
2608 1 1.21288185047240432e+02
2609 1 1.97841449486414085e+01
2610 1 1.09052987588741459e+02
2611 1 9.37616707212078353e+01
2612 1 1.37018552598972974e+02
2613 1 3.07860186222887592e+02
2614 1 2.25417980972592829e+02
2615 1 1.98410640874450991e+02
2616 1 1.55667774417625196e+02
2617 1 4.80044271799140574e+02
2618 1 6.82280055949069748e+01
2619 1 8.04169465560052004e+01
2620 1 2.06407868240883204e+02
2621 1 1.12071380480388072e+02
2622 1 2.61967402577464213e+02
2623 1 -2.06571842649474533e+01
2624 1 2.38809913192561481e+02
2625 1 8.23419718590102292e+01
2626 1 -3.72252536354855692e+02
2627 1 -3.29075583603472410e+02
2628 1 -9.88646442969492796e+01
2629 1 -2.04722466364621141e+02
2630 1 -6.99828866972686001e+02
2631 1 -5.31311947009347932e+02
2632 1 3.34242131916989706e+02
2633 1 1.46923618315209865e+02
2634 1 2.45514827537488770e+02
2635 1 4.07837960619711851e+02
2636 1 3.13940310416644991e+02
2637 1 2.97402368665021015e+02
2638 1 2.05725056641579528e+02
2639 1 3.80233798841535815e+02
2640 1 2.61832104916660114e+02
2641 1 -2.74819761693119005e+02
2642 1 4.60704180845754820e+02
2643 1 4.85267998388603587e+02
2644 1 8.68065801431451632e+02
2645 1 5.70989616668486747e+02
2646 1 9.45299593531145092e+02
2647 1 1.30332459134171631e+03
2648 1 2.00628854925985729e+03
2649 1 8.08388076270115107e+02
2650 1 1.70415147368258545e+03
2651 1 3.33495733467890034e+02
2652 1 8.00914191918211031e+02
2653 1 6.20619104855392607e+02
2654 1 7.04748316278868515e+02
2655 1 3.40744157735043132e+02
2656 1 2.67515616489899799e+02
2657 1 6.98810024492956700e+02
2658 1 2.48009502857138585e+02
2659 1 -9.85280611297108294e+02
2660 1 -2.60473414389627578e+02
2661 1 -8.11749700190585732e-02
2662 1 -1.71587851655420394e+02
2663 1 -1.34638962081605371e+02
2664 1 -3.69657320650251279e+02
2665 1 -2.88232276365946689e+02
2666 1 -9.27667734702804125e+01
2667 1 -2.58412393344848851e+02
2668 1 -6.68279701879986192e+02
2669 1 -7.29938932344387126e+02
2670 1 -4.22787881190634778e+02
2671 1 -5.89696950155746933e+01
2672 1 -1.82042042773550094e+02
2673 1 -3.39009420874808995e+02
2674 1 -1.70869979389332713e+02
2675 1 -2.24415164159639602e+02
2676 1 -2.84934627565107405e+02
2677 1 -3.29580192827348014e+02
2678 1 -5.69121585572224475e+01
2679 1 -1.38133353939560067e+02
2680 1 -9.24718027451639841e+01
2681 1 -7.82213870033571226e+01
2682 1 -1.29333977109820495e+02
2683 1 -3.26041223383205306e+02
2684 1 -8.67670992415702500e+01
2685 1 -1.10425168778438248e+02
2686 1 -2.61300925918115752e+02
2687 1 -1.75206639862826194e+02
2688 1 -9.87139994623211123e+01
2689 1 7.14525053935321495e+01
2690 1 -2.93147200041861069e+01
2691 1 4.90867425980080763e-01
2692 1 4.81222826533512134e+01
2693 1 -1.15009719948550266e+01
2694 1 -4.74010992736769978e+01
2695 1 4.25346523294279677e+02
2696 1 2.14089562678318543e+02
2697 1 8.34867044331995913e+01
2698 1 1.35766797157251887e+02
2699 1 -7.84811570255637321e+02
2700 1 -2.61415323355111525e+02
2701 1 -7.18411455445065457e+01
2702 1 -1.46276223644606006e+02
2703 1 4.82703471628366799e+02
2704 1 2.12878157898996307e+02
2705 1 1.04574565732948236e+03
2706 1 9.18031464427614310e+02
2707 1 1.09214425820443307e+03
2708 1 2.43730343376071346e+02
2709 1 5.50370784741361376e+02
2710 1 2.08027487557091945e+02
2711 1 1.80258982002420225e+02
2712 1 4.08978137847460630e+02
2713 1 9.04958282496570661e+01
2714 1 -8.96364009907104105e+02
2715 1 2.64380629922341882e+02
2716 1 -6.50575078122111222e+02
2717 1 -8.12437196840965157e+02
2718 1 -2.10763333820431399e+02
2719 1 -7.34625358205390313e+01
2720 1 -4.55536954068008555e+01
2721 1 4.75973997882780324e+01
2722 1 2.16314510842851803e+02
2723 1 -3.08791248030006841e+02
2724 1 -3.33929198749417424e+02
2725 1 1.38198699208174872e+02
2726 1 1.52627433986218989e+02
2727 1 2.96071878944547336e+02
2728 1 4.13118580598438996e+02
2729 1 2.31270470843454433e+02
2730 1 1.53437160323713840e+02
2731 1 1.89294868090687373e+02
2732 1 1.81740157630288735e+02
2733 1 2.00077824689284739e+02
2734 1 3.35979514034750821e+02
2735 1 2.62423719543832135e+02
2736 1 3.82539726357290476e+02
2737 1 6.94769616691535361e+02
2738 1 1.59206544194366330e+02
2739 1 -5.31440253529315640e+01
2740 1 -2.53400519764211026e+02
2741 1 3.22978345902170183e+00
2742 1 1.81903084539327295e+02
2743 1 -1.46392879862474615e+02
2744 1 -5.34700579411230166e+01
2745 1 -2.53936504600977955e+01
2746 1 4.14282415201252192e+01
2747 1 3.86681130930002794e+01
2748 1 1.74915207453359955e+02
2749 1 1.34174725986525232e+02
2750 1 1.87004478612137888e+02
2751 1 6.28299455932069506e+01
2752 1 1.80718117812539873e+02
2753 1 5.98860818042158598e+02
2754 1 1.28227868665906612e+01
2755 1 2.37068726755946898e+02
2756 1 3.27195372819169449e+02
2757 1 2.33410070880143508e+02
2758 1 2.13126489090407148e+02
2759 1 2.21328076051150219e+02
2760 1 2.24117419999583802e+02
2761 1 7.67282614419192669e+02
2762 1 -3.62080159536011024e+02
2763 1 -7.36252718368375326e+02
2764 1 -3.89150394240452385e+02
2765 1 -9.32040344358264974e+02
2766 1 -1.74189588904043688e+02
2767 1 -1.38146167734724116e+02
2768 1 4.12188703027144570e+01
2769 1 9.07340911927759919e+00
2770 1 2.41420103395103581e+02
2771 1 1.70498781868103833e+02
2772 1 -1.33476644562616968e+02
2773 1 -1.06186133639993415e+02
2774 1 -1.35682005868421402e+03
2775 1 -4.44731561384404984e+02
2776 1 -6.00632044273275710e+02
2777 1 4.25659364782369948e+02
2778 1 -2.34469305855478069e+02
2779 1 5.38388402781991886e+02
2780 1 3.82434191691064882e+02
2781 1 1.97453420955469142e+03
2782 1 -1.14464499647033282e+01
2783 1 -1.50917662906800416e+02
2784 1 1.46750752456320697e+02
2785 1 3.43774302067706401e+01
2786 1 5.85757656954062327e+02
2787 1 6.54215167872051779e+01
2788 1 2.40521100772137203e+02
2789 1 3.47269539326044935e+02
2790 1 1.72170093190636436e+02
2791 1 7.74829894526507132e+02
2792 1 3.95378223097561431e+02
2793 1 2.02654327624337157e+02
2794 1 -4.62830099995033137e+01
2795 1 7.28884384138050905e+02
2796 1 1.62925128021507049e+02
2797 1 3.80623686218905277e+02
2798 1 1.64852439906614677e+02
2799 1 3.76339862096833940e+02
2800 1 -7.46344532822855200e+01
2801 1 2.38626176361003701e+02
2802 1 3.75418058999447055e+01
2803 1 6.75148778708890660e+01
2804 1 7.24418287673634609e+01
2805 1 6.75289442909549251e+01
2806 1 -4.71537897975005862e+01
2807 1 -1.62420139653946421e+02
2808 1 -1.50303538223945139e+02
2809 1 -3.38998146111522146e+02
2810 1 -9.11418692912255608e+01
2811 1 -1.15772642538156816e+02
2812 1 -2.66910157897966087e+02
2813 1 -3.27247673451945388e+02
2814 1 -4.85800537758560040e+02
2815 1 -2.96986069651503612e+02
2816 1 -7.79734328850803081e+02
2817 1 -3.33095337953472153e+02
2818 1 -4.55302891539669019e+02
2819 1 -6.84952568303451557e+01
2820 1 -2.42205738977607041e+02
2821 1 -4.07633590507055771e+02
2822 1 -2.00567319991563835e+02
2823 1 -2.82579558699363076e+02
2824 1 -2.94764147229876414e+02
2825 1 -3.08542773148895378e+02
2826 1 -3.06560054350161749e+02
2827 1 -3.54439505028175859e+02
2828 1 -3.91249805693667270e+02
2829 1 -2.14473134807290478e+02
2830 1 -2.68474656518273378e+02
2831 1 -1.76367551513102654e+02
2832 1 -2.12756264404068332e+02
2833 1 -2.53953169535151062e+02
2834 1 -2.38825285393320627e+02
2835 1 -1.61451205535782861e+02
2836 1 -5.89459588429680110e+01
2837 1 -3.19989874118550574e+02
2838 1 -8.99311554744559487e+01
2839 1 -1.56999166392128558e+02
2840 1 -1.20113180835407178e+02
2841 1 -2.54996095423111697e+01
2842 1 4.14747813569165729e+01
2843 1 -1.33881919528309766e+02
2844 1 -1.66437962758589151e+02
2845 1 -1.78773413399076588e+02
2846 1 -2.40772772399930943e+02
2847 1 -2.86543297702735629e+02
2848 1 -1.41012975144071788e+02
2849 1 3.60355899473333565e+01
2850 1 -1.92837653268646307e+02
2851 1 -2.25594300260853288e+02
2852 1 -6.29464673225586395e+01
2853 1 -6.42736581349097094e+01
2854 1 1.22570836119109202e+02
2855 1 6.64604768200415066e+01
2856 1 2.25897808107369769e+02
2857 1 2.42844327632258199e+02
2858 1 1.55850618684776606e+02
2859 1 -1.16299128185586099e+02
2860 1 1.60260422075666247e+03
2861 1 5.32415320432590079e+02
2862 1 9.99574487463720942e+01
2863 1 -1.19528406842923937e+03
2864 1 8.26723233888067853e+02
2865 1 7.06403773082895896e+02
2866 1 5.62173240160750197e+02
2867 1 4.64525117343266515e+02
2868 1 4.13414831682177009e+02
2869 1 3.55735800412667004e+02
2870 1 9.20226082063605531e+02
2871 1 1.14716389585541583e+03
2872 1 -1.80604099620978360e+02
2873 1 3.82462686617307725e+02
2874 1 -5.41855990584069104e+02
2875 1 -1.34882493714678253e+03
2876 1 5.27484453369472362e+02
2877 1 -3.29243843382414525e+02
2878 1 -1.39082437924917087e+02
2879 1 -4.06115128526004732e+00
2880 1 -4.87779946384046980e+02
2881 1 1.50956556992752866e+02
2882 1 3.34528566104823085e+02
2883 1 4.33370908925030051e+02
2884 1 2.80237380969422702e+02
2885 1 1.84184163445147135e+02
2886 1 2.57193891254715027e+02
2887 1 5.43581065544342891e+02
2888 1 7.47456236522828249e+02
2889 1 4.03093571011728159e+02
2890 1 2.55185742144430350e+02
2891 1 1.24517113349140928e+02
2892 1 2.01682671875622447e+02
2893 1 1.83825994007240965e+01
2894 1 2.19087966344928844e+02
2895 1 3.54356192984605798e+02
2896 1 1.71692186314885333e+02
2897 1 2.32856227453274300e+02
2898 1 2.32743762159962301e+02
2899 1 2.74711351956724457e+02
2900 1 1.75000524752838885e+02
2901 1 3.13504837602804855e+02
2902 1 1.18087255220373748e+02
2903 1 -1.02838451922787371e+02
2904 1 1.01843464482370123e+02
2905 1 2.32344757090853392e+02
2906 1 1.51812285961631289e+02
2907 1 2.18147521997618185e+02
2908 1 3.36429037901217214e+02
2909 1 4.56035508055727234e+01
2910 1 -1.80144414426208328e+02
2911 1 -5.54798282489747496e+00
2912 1 1.02528498042293805e+02
2913 1 -1.39813801461743566e+02
2914 1 -1.78681426916284849e+01
2915 1 -1.11988163624237231e+02
2916 1 -1.82322801342487026e+02
2917 1 -2.62395746593325384e+02
2918 1 -1.28075019725744141e+02
2919 1 -1.30546082186620112e+02
2920 1 2.20549903962795156e+02
2921 1 2.73054587956077000e+02
2922 1 2.53689609872257904e+02
2923 1 1.40082354758813779e+02
2924 1 1.87111536209553918e+02
2925 1 -2.35347036270491230e+02
2926 1 -4.35817508222390416e+02
2927 1 1.26180577005778133e+02
2928 1 -2.02611391480261709e+01
2929 1 2.07364076586516646e+01
2930 1 2.99723262425390971e+01
2931 1 1.97511087113123125e+02
2932 1 1.60549117330240477e+02
2933 1 -2.63537313703624712e+01
2934 1 7.62231201702459657e+02
2935 1 3.71882550911591466e+02
2936 1 1.30287642993325022e+02
2937 1 -1.36822809537891402e+02
2938 1 -2.49794594404912800e+02
2939 1 -6.41931838714772766e+02
2940 1 9.81293518017482285e+01
2941 1 -9.86363932377159180e+00
2942 1 -1.19607828326722625e+02
2943 1 -1.20001655528693405e+02
2944 1 -5.11320255154473102e+01
2945 1 -2.04724598094588629e+02
2946 1 -1.28706541609007047e+02
2947 1 -2.74951911989077144e+03
2948 1 -4.25576789799864002e+02
2949 1 -1.98628080923249115e+02
2950 1 -1.10290713087601489e+03
2951 1 1.50148604301970266e+02
2952 1 -2.72565910390042461e+02
2953 1 1.33747503749872351e+02
2954 1 -8.67243809849345837e+01
2955 1 -1.12903098276622700e+03
2956 1 -1.51391906531304897e+02
2957 1 4.30330832372650434e+02
2958 1 1.42167746138812454e+01
2959 1 -2.91379693400791808e+01
2960 1 -1.72871582844856391e+02
2961 1 -7.65319572998203171e+02
2962 1 -1.58094515533408389e+03
2963 1 1.14511045011461576e+02
2964 1 -3.24656121509297577e+02
2965 1 -3.22343057301553188e+02
2966 1 -5.23123184106168310e+02
2967 1 -4.00394090192890530e+02
2968 1 -5.92540452058949427e+02
2969 1 5.23969559097526982e+01
2970 1 2.99691013437494632e+02
2971 1 -9.57184810304308087e+01
2972 1 -3.33011689160601918e+01
2973 1 7.63732320151430579e-03
2974 1 -4.27915245088029508e+01
2975 1 -3.77999979468347007e+01
2976 1 3.29464829591168140e+01
2977 1 -5.97017683487135926e+01
2978 1 3.77358966634366189e+00
2979 1 1.17269535678452627e+02
2980 1 -8.70246041242679951e+01
2981 1 -3.75159275977198945e+02
2982 1 -1.50799686371325606e+02
2983 1 -1.27834759633287320e+02
2984 1 -5.66993367541611022e+01
2985 1 -8.63264158348896444e+01
2986 1 1.84766898183245416e+02
2987 1 6.56279340893055263e+01
2988 1 -2.75746209086041709e+01
2989 1 -6.20718072588829273e+01
2990 1 -4.58650458355398101e+01
2991 1 2.70872253312854072e+00
2992 1 1.15165089598650255e+02
2993 1 1.52641779582049708e+02
2994 1 2.22106717123519701e+02
2995 1 7.69504378779782598e+01
2996 1 1.84510543254726599e+02
2997 1 -3.57153609805401473e+01
2998 1 4.20906102455709231e+02
2999 1 -2.58286014881880703e+02
3000 1 -3.88160402435118385e+02
3001 1 -5.12319621103594386e+02
3002 1 -3.05965808819333176e+02
3003 1 -1.90308353705712648e+02
3004 1 -1.76504129213914922e+02
3005 1 -4.20704328378304467e+02
3006 1 -5.20622112614578896e+02
3007 1 -7.70810568640212750e+02
3008 1 -8.64812427377986069e+02
3009 1 -3.39624078718417650e+02
3010 1 -2.58491359619234061e+02
3011 1 -2.68701772916763446e+02
3012 1 -2.43058781071014124e+02
3013 1 -5.79695247208833962e+02
3014 1 -4.06548985466774980e+02
3015 1 -4.35273266606757886e+02
3016 1 -3.79570162780015210e+02
3017 1 -3.69030690888971492e+02
3018 1 6.85819737086331855e+01
3019 1 -2.17443300375916863e+02
3020 1 -3.13529425583935904e+02
3021 1 -2.42626318324997982e+02
3022 1 -1.29390617416021797e+02
3023 1 -3.24850796499593685e+02
3024 1 -4.72016600437447607e+02
3025 1 -2.83862923764483924e+02
3026 1 -4.72071101445936449e+02
3027 1 -2.73201081796428980e+02
3028 1 -4.32739857566867627e+01
3029 1 3.31388373614324436e+01
3030 1 -1.16516203671073811e+02
3031 1 -1.34166010001355374e+02
3032 1 -6.22348321154735302e+01
3033 1 -1.03754030913594960e+02
3034 1 7.35366279757435422e+01
3035 1 1.09665740862724775e+02
3036 1 1.52533666862926438e+01
3037 1 5.80555837704268498e+01
3038 1 3.10171212014269386e+01
3039 1 1.80170851491671016e+01
3040 1 4.17427194341232379e+01
3041 1 5.14541275926572865e+01
3042 1 3.85923885718634310e+01
3043 1 2.45391516504629976e+01
3044 1 5.09457403867491294e+01
3045 1 3.48563301902362639e+01
3046 1 5.66531840113588743e+01
3047 1 8.75753933380268137e+01
3048 1 9.05164651624012748e+01
3049 1 3.35325237840721826e+01
3050 1 3.79801500211885426e+01
3051 1 3.18877978247927132e+01
3052 1 2.91508564346802963e+01
3053 1 1.18403829270202916e+01
3054 1 2.38365748856496182e+01
3055 1 3.07312730780544392e+01
3056 1 4.27425437468965441e+01
3057 1 3.74402066505955986e+01
3058 1 2.63890493333647349e+01
3059 1 3.45182333217204473e+02
3060 1 1.59652778838074482e+02
3061 1 6.85915395420259131e+01
3062 1 -2.29099013559849539e+02
3063 1 -3.36311541146881950e+02
3064 1 2.07594168718189451e+02
3065 1 3.19047995344716981e+02
3066 1 5.39717962355424561e+02
3067 1 5.82426807433364274e+02
3068 1 3.27581927337723698e+02
3069 1 7.85389972389263704e+01
3070 1 -2.35035148999083930e+02
3071 1 3.50014815565040180e+01
3072 1 3.17812545188079518e+01
3073 1 1.53960440135554791e+02
3074 1 -5.54096769472637220e+02
3075 1 -4.89186016659051631e+02
3076 1 -1.02242092484840680e+03
3077 1 -2.16180925417829599e+02
3078 1 -6.13114843750995036e+01
3079 1 -4.06421216865807537e+02
3080 1 4.17095322938611801e+01
3081 1 -1.71809033699346827e+02
3082 1 -3.65913019697074901e+02
3083 1 1.04000555954924607e+03
3084 1 7.35781540007802278e+02
3085 1 1.25584183346934083e+03
3086 1 -1.49142237324936389e+02
3087 1 -2.33968395198096516e+02
3088 1 4.72129378495139704e+01
3089 1 2.29928004177181151e+01
3090 1 1.54470174396350984e+02
3091 1 1.04011244502404864e+02
3092 1 2.26332456370573880e+02
3093 1 -1.76459777544634619e+02
3094 1 -4.11998241606763145e+02
3095 1 -5.16819046898056627e+02
3096 1 -7.01234491544145477e+00
3097 1 -5.16526049380228471e+01
3098 1 -2.45423135320296240e+01
3099 1 -1.56193486786000548e+01
3100 1 2.60304731234970852e+01
3101 1 2.29726821936910319e+00
3102 1 4.60390788119729599e+00
3103 1 -5.08883990301468025e-01
3104 1 5.13586058172058291e+00
3105 1 -1.75135029598673930e+00
3106 1 -3.00035217170507593e+01
3107 1 2.10536802740507056e+01
3108 1 2.48219013492338178e+02
3109 1 9.81364926359145642e+01
3110 1 5.15196989370053373e+01
3111 1 1.19240634336160227e+02
3112 1 9.75593650020637000e+01
3113 1 1.74099544049674535e+02
3114 1 3.01249387174279946e+02
3115 1 2.58507527065989791e+02
3116 1 5.46487942836576963e+02
3117 1 3.71862781896692809e+02
3118 1 2.78939701776242543e+02
3119 1 5.42056088387621386e+01
3120 1 6.32506225862470188e+01
3121 1 4.47556075800101141e+01
3122 1 9.39553631802077831e+01
3123 1 1.67645872714524501e+02
3124 1 7.88471798466440710e+00
3125 1 8.66479331563284916e+00
3126 1 -5.70736974194332163e+01
3127 1 9.32604348759614510e+01
3128 1 -6.12451004935033438e+01
3129 1 -1.83440525560755283e+01
3130 1 -5.29349750160187256e+01
3131 1 -3.22584388416175614e+01
3132 1 -5.41746572823613235e+01
3133 1 -1.77499387656629949e+02
3134 1 -9.85511401303387942e+01
3135 1 -8.49433737790226360e+01
3136 1 -5.12952200373594209e+01
3137 1 -7.20883054557397429e+01
3138 1 -1.23169998248891218e+02
3139 1 -9.20487782291709351e+01
3140 1 -1.03143550018771730e+01
3141 1 -1.83766392618226817e+01
3142 1 -2.26534998641791603e+01
3143 1 -1.09383420075746347e+01
3144 1 -3.52001160921714558e+01
3145 1 -2.22367312995918276e+01
3146 1 7.76812671309527847e+00
3147 1 1.13541099022406051e+01
3148 1 4.68496588741869502e+01
3149 1 -1.34096188655373396e+01
3150 1 1.69746392629137048e+01
3151 1 4.65293338066828888e+00
3152 1 -3.87857236335920952e+00
3153 1 -1.95561310971557596e+01
3154 1 -3.20660266744542071e+01
3155 1 -8.40887028587144414e+00
3156 1 2.56274215815257866e+00
3157 1 -1.06372751400374077e+00
3158 1 4.49284055893657275e+00
3159 1 7.53724660178372119e+00
3160 1 7.13640318807476426e+00
3161 1 6.59866282720904618e+00
3162 1 5.81544400973359377e+00
3163 1 1.15999379220415015e+01
3164 1 2.60290381356078182e+00
3165 1 1.14913064130198688e+01
3166 1 1.86095839606935058e+01
3167 1 1.65215771266495395e+01
3168 1 2.48795938737311175e+01
3169 1 -1.99750983633431822e+00
3170 1 -6.02317336686114402e+00
3171 1 -6.75151504896499599e+00
3172 1 -3.90164809534447743e+00
3173 1 1.02787130521820846e+00
3174 1 1.49611903349913575e+01
3175 1 2.02043682234309685e+01
3176 1 3.95318107263722096e+00
3177 1 2.72588338510733186e+00
3178 1 5.03797732499475881e+00
3179 1 4.59479173992755019e+00
3180 1 6.48219227833808560e+01
3181 1 -6.17479661467224883e+00
3182 1 1.01530474543928150e+02
3183 1 2.17590495165450676e+02
3184 1 8.89565171006219089e+01
3185 1 1.89316007365748106e+02
3186 1 6.28220175894818794e+02
3187 1 1.70806556237849009e+02
3188 1 4.67203581759996950e+02
3189 1 1.38586291327314427e+02
3190 1 -4.42750556278303975e+02
3191 1 -2.02820540911124567e+03
3192 1 3.94741626780102536e+02
3193 1 1.48556101239703048e+03
3194 1 -1.53212673667426816e+03
3195 1 -2.60688735721383409e+03
3196 1 -6.36638917457219213e+03
3197 1 -1.46085212583740457e+02
3198 1 8.10550772446739757e+02
3199 1 2.98828539663539630e+02
3200 1 8.22282471632552301e+02
3201 1 3.38910010085724366e+02
3202 1 1.82908318991972556e+03
3203 1 2.91996254790777641e+02
3204 1 -2.09384241872226028e+02
3205 1 -6.26378815599442191e+02
3206 1 -6.50088622555242523e+02
3207 1 -1.16071564074075468e+03
3208 1 7.78526320873764575e+02
3209 1 -1.50491129344789101e+02
3210 1 -1.19467961586727569e+02
3211 1 -4.62123210794905560e+02
3212 1 -1.48061056654541107e+03
3213 1 1.23767922001357647e+03
3214 1 1.45562273649715667e+03
3215 1 2.85889820735448041e+02
3216 1 5.80211627967810159e+02
3217 1 5.95432082413849571e+02
3218 1 2.16664443704654303e+02
3219 1 3.32316987122118690e+02
3220 1 -1.85583949418937777e+02
3221 1 -2.16269306101748064e+01
3222 1 -1.17733903193435108e+00
3223 1 1.66466433748601844e+02
3224 1 2.34887329544845699e+02
3225 1 -2.00974588348185534e+00
3226 1 -6.16980643687493391e+00
3227 1 2.32282049158319387e+03
3228 1 2.06629737036465167e+03
3229 1 1.60014485581358286e+02
3230 1 1.51577275313066735e+02
3231 1 1.48803979685389663e+02
3232 1 1.54411062424522925e+02
3233 1 1.50899020984624684e+02
3234 1 1.51791165296702530e+02
3235 1 1.56766349921314088e+02
3236 1 1.60576060920803798e+02
3237 1 1.60829918740419345e+02
3238 1 8.39049588116640734e+02
3239 1 6.83325788855166707e+02
3240 1 5.70759026253516708e+02
3241 1 8.87994330945537968e+02
3242 1 6.32859893681184758e+02
3243 1 9.89193356222751845e+02
3244 1 7.95339366453318689e+02
3245 1 7.50338306140618670e+02
3246 1 -4.31995817785309953e+02
3247 1 -2.32709213335610315e+02
3248 1 2.18169676896429024e+02
3249 1 -4.60036147482768570e+02
3250 1 4.51094913468828508e+02
3251 1 6.01846363566955574e+02
3252 1 8.97320038215754039e+02
3253 1 1.11686303201810870e+03
3254 1 2.13933994067818361e+02
3255 1 1.09511112965767484e+03
3256 1 3.56957501999578028e+02
3257 1 2.11015855035767345e+02
3258 1 -6.95877879130660972e+02
3259 1 2.78303817023769170e+03
3260 1 2.24434031628530738e+03
3261 1 3.36631076582772550e+01
3262 1 3.38593677546558212e+01
3263 1 5.51147434816115265e+01
3264 1 5.72097637276613398e+01
3265 1 8.44457943683128178e+01
3266 1 6.11230755948117874e+01
3267 1 7.34476951370590996e+02
3268 1 1.28144858990807478e+02
3269 1 2.74883616785307936e+02
3270 1 -5.99490481496470352e+02
3271 1 -4.18043201549095102e+02
3272 1 -1.22277112625134322e+02
3273 1 -2.05731390799578520e+02
3274 1 -1.61241003517512169e+01
3275 1 -7.58263682777024286e+01
3276 1 -1.40621519587589852e+01
3277 1 5.77211863724098464e+01
3278 1 6.85359335620166235e+01
3279 1 9.23438927463217993e+01
3280 1 5.36679562179795724e+01
3281 1 4.89444985017884022e+01
3282 1 5.83347502141511285e+01
3283 1 2.58767037711180308e+01
3284 1 4.15928896511824036e+01
3285 1 -2.62033549259387435e+01
3286 1 7.13317447921296122e+00
3287 1 7.08335509174460576e+00
3288 1 -1.55622595535027358e+02
3289 1 -6.17961866315655399e+01
3290 1 -1.96066107620830259e+01
3291 1 -7.99711146661545200e+01
3292 1 2.11311330903259247e+01
3293 1 3.59775181597073413e+02
3294 1 1.40312307803313331e+02
3295 1 -2.94786269757225398e+02
3296 1 -1.85455237130411319e+02
3297 1 -3.40923479458000202e+02
3298 1 -1.59709373957835027e+02
3299 1 -1.14858571824832865e+02
3300 1 -1.17368639666021735e+02
3301 1 -6.95055281040738464e+01
3302 1 -5.15464764306864538e+01
3303 1 1.97989731276602868e+02
3304 1 1.07953905770485619e+02
3305 1 1.12421839675303943e+02
3306 1 2.38244343493034421e+02
3307 1 1.05697649208818234e+02
3308 1 7.75565642476927053e+01
3309 1 1.98648949707765837e+02
3310 1 2.57079769052335394e+02
3311 1 1.84690830245589865e+02
3312 1 3.10165370585557525e+02
3313 1 6.64796784258668708e+02
3314 1 4.00015620362744983e+02
3315 1 5.62243960326469164e+02
3316 1 2.99975810032650600e+02
3317 1 5.20340049445727715e+01
3318 1 6.80830375669683292e+01
3319 1 9.34736605830187983e+01
3320 1 1.77399901925187152e+02
3321 1 2.46041340608506516e+02
3322 1 1.63342692873593080e+02
3323 1 2.34341759278319643e+02
3324 1 2.08138046885673702e+02
3325 1 2.63890759696932889e+02
3326 1 4.74154756074494514e+02
3327 1 3.28106659224622774e+02
3328 1 1.50065193307047849e+02
3329 1 -7.72328202845430525e+01
3330 1 -7.29046720337685628e+01
3331 1 -9.89036894800798052e+01
3332 1 -1.70808051858064374e+02
3333 1 -3.62988889325785413e+00
3334 1 -1.08451834502919553e+02
3335 1 -2.13044953387240298e+02
3336 1 -2.68212786744559025e+02
3337 1 -5.17552718552321039e+02
3338 1 -3.08860218547445356e+02
3339 1 -1.88621895209476946e+02
3340 1 -2.49144254193857563e+02
3341 1 -2.12725452713494349e+02
3342 1 -2.16725874456417074e+02
3343 1 -7.19504015125354641e+01
3344 1 -6.91095068774907872e+01
3345 1 1.09584167858542332e+03
3346 1 4.45236943493537865e+02
3347 1 7.26374514046584522e+02
3348 1 3.42682888229659113e+02
3349 1 9.40176915595747431e+01
3350 1 6.16905150698163425e+02
3351 1 -6.69402687782917042e+02
3352 1 -4.73170058490528902e+02
3353 1 -6.35352579693278699e+02
3354 1 -7.92042024635079770e+02
3355 1 -1.62379446873109686e+02
3356 1 3.87390613248931288e+02
3357 1 3.59139975744798676e+02
3358 1 3.70335032248911418e+01
3359 1 7.87642598428792439e+02
3360 1 3.41169793163227894e+02
3361 1 1.56986153314902339e+02
3362 1 4.28008987570523345e+02
3363 1 3.23758279096294132e+02
3364 1 1.87794387630350542e+02
3365 1 1.05005793563693544e+02
3366 1 -2.33041370295723618e+03
3367 1 -8.20433983207624010e+02
3368 1 -6.91569350912629147e+02
3369 1 -7.76807374182846388e+02
3370 1 4.01219246905277274e+01
3371 1 1.87398734954131697e+02
3372 1 1.71480676713384184e+02
3373 1 2.23644061228373829e+02
3374 1 1.42972551373823848e+02
3375 1 -1.08615711802946606e+01
3376 1 -1.05213495411341249e+01
3377 1 -1.15462127899438745e+01
3378 1 -1.15801308731529637e+01
3379 1 1.73529883269996468e+01
3380 1 9.64647367347224503e+01
3381 1 5.20257152007628392e+01
3382 1 3.71103283383730016e+01
3383 1 4.95721760630725043e+01
3384 1 8.82877210012025415e+00
3385 1 1.62849925259068122e+01
3386 1 3.18565232769635038e+01
3387 1 5.44117693014135000e+01
3388 1 3.16675362282899435e+01
3389 1 -1.07249675608473396e+01
3390 1 -3.72777055263308696e+01
3391 1 -4.10320887803040293e+01
3392 1 -8.09448929763055816e+01
3393 1 3.64312452492265015e-01
3394 1 -5.02428000291145835e+01
3395 1 -5.50188441336553851e+01
3396 1 -8.61187133442455774e+01
3397 1 -3.05709321159684997e+01
3398 1 -1.65656576679075975e+01
3399 1 -1.82649264923272909e+01
3400 1 -1.22931564778634028e+00
3401 1 -2.07834568989953672e+00
3402 1 1.02960367790411297e+02
3403 1 1.15294750362541379e+02
3404 1 1.26344833338099775e+02
3405 1 1.54859353855191074e+02
3406 1 4.32288795195903219e+02
3407 1 4.24813194848331136e+02
3408 1 5.12140992121274394e+02
3409 1 4.83240066155592331e+02
3410 1 -5.43141389713396094e-01
3411 1 4.75739807498614425e+02
3412 1 3.80588132909772582e+02
3413 1 1.16772668454544544e+02
3414 1 -1.76888145244643795e+02
3415 1 -1.55370554599781229e+02
3416 1 3.85084361631499448e+01
3417 1 -9.57409347817466880e+01
3418 1 -4.17096864035171748e+01
3419 1 7.16765352643780176e+01
3420 1 1.73096211860035424e+02
3421 1 1.89105626669032546e+02
3422 1 1.21429228433880581e+02
3423 1 8.29479793710047062e+01
3424 1 2.00468721185424954e+02
3425 1 4.70769067135774151e+02
3426 1 3.04670588015786507e+02
3427 1 2.33605238328797242e+02
3428 1 3.24128512293272763e+02
3429 1 3.81226371823613874e+02
3430 1 6.27244858958066857e+02
3431 1 4.43841114931055131e+02
3432 1 4.36318788307598879e+02
3433 1 4.55242275567001059e+02
3434 1 3.13670294947509262e+02
3435 1 2.32575944520586091e+02
3436 1 2.94045179945225584e+02
3437 1 1.69559961493609194e+02
3438 1 2.13095427744380942e+02
3439 1 5.55076039802790646e+01
3440 1 2.87309811131822528e+02
3441 1 3.37802254870289744e+02
3442 1 4.22847378340023056e+02
3443 1 2.03805529630613336e+02
3444 1 1.91715434206113628e+02
3445 1 1.76663993066801311e+02
3446 1 7.09726579655344949e+02
3447 1 6.81735439282299012e+02
3448 1 2.66978739596962740e+01
3449 1 1.57540362134542733e+02
3450 1 2.62023864359988067e+02
3451 1 2.87201784337801712e+02
3452 1 3.81466216363499143e+02
3453 1 2.25781685979104424e+02
3454 1 2.66841810815193469e+02
3455 1 4.20656369097899159e+01
3456 1 -9.33172016887105684e+01
3457 1 1.27834074476790249e+02
3458 1 5.56684389285555241e+01
3459 1 1.22797561149720806e+02
3460 1 1.41552686232391238e+02
3461 1 1.42849621197179005e+02
3462 1 3.31115484674428515e+01
3463 1 -1.56152429409877982e+01
3464 1 -1.63879555302694015e+01
3465 1 7.78925105603534575e+01
3466 1 8.18334116474099744e+01
3467 1 2.75217077684620044e+01
3468 1 2.65400305424393643e+01
3469 1 9.94183703228990368e+00
3470 1 3.48749707168307950e+01
3471 1 2.21896065663256422e+02
3472 1 1.37919702523523966e+02
3473 1 6.29829273075314546e+01
3474 1 1.73926006377259625e+02
3475 1 2.11448369905481606e+01
3476 1 -6.15436709449835391e+01
3477 1 1.00856904477583349e+01
3478 1 -2.86789044528629518e+01
3479 1 8.60717019050466376e+01
3480 1 9.63599062501655652e+01
3481 1 9.63377959681683222e+01
3482 1 9.63527065762820456e+01
3483 1 9.61810727383939366e+01
3484 1 9.63138406286662416e+01
3485 1 9.63400639935998839e+01
3486 1 -5.84000657768742826e+02
3487 1 3.55296474783444978e+02
3488 1 2.05512896521319334e+02
3489 1 2.41710226641910033e+01
3490 1 2.27798274326518388e+01
3491 1 2.22491315027588250e+01
3492 1 3.25371120509691281e+01
3493 1 2.92335803626335924e+01
3494 1 2.76043393858037582e+01
3495 1 3.34153899814675555e+01
3496 1 3.89537040273685307e+01
3497 1 3.05650220574910989e+01
3498 1 3.53284941276351816e+01
3499 1 1.31064935439043158e+01
3500 1 2.04893199908888022e+01
3501 1 1.36682121225120436e+01
3502 1 4.24421106470909848e+01
3503 1 -1.29608060763707357e+02
3504 1 5.77032128455127413e+00
3505 1 -3.43033746256498606e+00
3506 1 -1.22665400061146002e+02
3507 1 -1.29893733248409291e+02
3508 1 -4.96591073097488334e+01
3509 1 -2.18301984646988046e+02
3510 1 -3.27666846686290398e+02
3511 1 7.56741332658753208e+02
3512 1 -1.54174000379355469e+01
3513 1 -1.86818213887867159e+02
3514 1 -1.59268899385602111e+02
3515 1 -1.16594827837739885e+02
3516 1 -2.20943636276425991e+02
3517 1 -1.24867432072643510e+02
3518 1 -9.82753110223835620e+01
3519 1 -1.43655240515424879e+02
3520 1 -1.77431077562835355e+02
3521 1 -1.07446943732422966e+02
3522 1 -1.30203052980935666e+02
3523 1 -6.64571342352128482e+01
3524 1 -1.08957281215181538e+02
3525 1 -1.89733261198076377e+02
3526 1 -1.90275171980784734e+02
3527 1 -2.94180938953435088e+02
3528 1 -3.05895869118014048e+02
3529 1 1.36057296226539037e+01
3530 1 -8.36183426052608212e+01
3531 1 -1.18070881204524724e+02
3532 1 -2.84806827504032256e+01
3533 1 3.04373364942543333e+02
3534 1 1.46292879974442599e+02
3535 1 7.84585796075750324e+01
3536 1 5.58507619722704405e+01
3537 1 -5.46324320513791495e+00
3538 1 3.15419687363480783e+01
3539 1 8.52471844146995892e+01
3540 1 -5.57277146723860497e+01
3541 1 2.66251568507394829e+01
3542 1 -7.95013633629527305e+01
3543 1 -2.09694865727051472e+01
3544 1 -2.14713199787453775e+01
3545 1 -8.04543430159812374e+01
3546 1 2.64051427615163504e+02
3547 1 8.95073047561644444e+01
3548 1 2.03874564226453344e+02
3549 1 3.70324058465791609e+02
3550 1 3.93176581262664058e+02
3551 1 3.45703498628970010e+02
3552 1 1.11735984218723502e+03
3553 1 4.94059552632289234e-01
3554 1 2.67903550767825145e+01
3555 1 9.26019523702094745e+01
3556 1 -6.10091251016609135e+01
3557 1 -4.08536981362250984e+01
3558 1 4.05594516839221484e+01
3559 1 -5.27653481812295126e+02
3560 1 4.75852540561586821e+01
3561 1 1.28360294942024257e+03
3562 1 -5.59871556552289746e+01
3563 1 2.49959359758917742e+02
3564 1 4.86369345887746590e+02
3565 1 -5.34208110972644157e+00
3566 1 8.27304312332251470e+02
3567 1 4.54384690009857934e+02
3568 1 -2.81320147315617487e+03
3569 1 -6.99123409131689414e+02
3570 1 6.36908831408215633e+02
3571 1 9.37019267011975785e+02
3572 1 5.02704266565635123e+02
3573 1 4.03936097923210525e+02
3574 1 4.49543493376094887e+02
3575 1 4.92957308313682745e+02
3576 1 2.21804767706928430e+02
3577 1 3.50693388608794066e+02
3578 1 4.20074158676278671e+02
3579 1 2.60571067087567201e+02
3580 1 1.02438694318511239e+02
3581 1 -1.70570178780134484e+02
3582 1 5.57791632283867429e+01
3583 1 2.19039141725704468e+02
3584 1 -1.47012890628003740e-01
3585 1 1.06757976931061165e+02
3586 1 -4.86322862526128432e+01
3587 1 4.04207643238976431e+01
3588 1 -2.05965281765721613e+02
3589 1 -9.26091521199050760e+01
3590 1 -2.58118136314787591e+02
3591 1 2.97342561437626998e+01
3592 1 -2.03035573036097849e+00
3593 1 -5.44062592576508337e+02
3594 1 -3.59795756187118400e+02
3595 1 -3.95308651089891328e+02
3596 1 -5.38834243050742089e+02
3597 1 -4.86226693552831193e+02
3598 1 -3.17595262653140821e+02
3599 1 -2.33231363407051248e+02
3600 1 -2.44084520460867481e+02
3601 1 -6.93775539500117020e+01
3602 1 -1.41300578465556406e+01
3603 1 -3.62533634264687748e+02
3604 1 -2.25960439962067738e+02
3605 1 -4.02431555100137359e+02
3606 1 -2.55700739651400141e+02
3607 1 -3.32278799289970664e+02
3608 1 -2.57405133026235205e+02
3609 1 -1.13906645718185715e+02
3610 1 -2.10745041198841022e+02
3611 1 -2.07703370662974010e+02
3612 1 -1.55341111079101125e+02
3613 1 4.06693158720629455e+01
3614 1 -6.35359495957737010e+01
3615 1 -9.59605104042184109e+01
3616 1 2.90680379698595672e+01
3617 1 -1.15593325919830903e+02
3618 1 -1.70369111919851804e+02
3619 1 -1.21943785607226914e+02
3620 1 -2.04750430228242308e+00
3621 1 -7.11571261644258755e+01
3622 1 2.08015068426062975e+01
3623 1 1.74158683726559474e+02
3624 1 9.96412854545670967e+01
3625 1 2.09853901517346230e+02
3626 1 8.98504838133640078e+01
3627 1 -9.04246544771950767e+01
3628 1 -1.08042252958700217e+02
3629 1 -4.36837733962573793e+01
3630 1 -1.46220520633816982e+01
3631 1 -3.64422672003538466e+01
3632 1 3.91841984383726114e+01
3633 1 8.85640855468147947e+00
3634 1 6.58618902100456012e+01
3635 1 1.05637587627280595e+02
3636 1 -2.08663175600681853e+02
3637 1 -1.80740885593158197e+02
3638 1 -1.43674056672634549e+02
3639 1 -1.29412936488755776e+02
3640 1 -1.55230923360533779e+02
3641 1 -8.50555339459121882e+01
3642 1 -6.86892099529491844e+01
3643 1 -1.15560843412596810e+02
3644 1 -9.82115508521008564e+01
3645 1 -9.47191766664059287e+01
3646 1 -1.09710182469982499e+02
3647 1 -6.99224784893410600e+01
3648 1 -4.88738343996374454e+01
3649 1 -2.48291245242364056e+01
3650 1 -3.43928152533060327e+01
3651 1 -4.70888935052673645e+01
3652 1 -2.87376830414104596e+01
3653 1 -6.57958020958383401e+01
3654 1 -1.02982900344402708e+02
3655 1 -3.49756675146147131e+01
3656 1 -8.47953333546661128e+01
3657 1 -1.81423711722789164e+02
3658 1 -1.96441453895154439e+02
3659 1 -1.47523021771784641e+02
3660 1 -9.36078085866368781e+01
3661 1 -1.31880241481022665e+02
3662 1 -1.11674196168472918e+02
3663 1 -1.02742459381892772e+02
3664 1 -1.20184469423078582e+02
3665 1 -4.83025873701716932e+02
3666 1 -3.40439515015268114e+02
3667 1 -2.94090437864513433e+02
3668 1 -2.69642196265850146e+02
3669 1 -1.06543734098384292e+02
3670 1 -3.40076374767085838e+02
3671 1 -1.64956316426125426e+02
3672 1 -3.39902128089494397e+02
3673 1 -6.97675730133272737e+02
3674 1 -7.03587531387761828e+02
3675 1 -4.45658472731299071e+02
3676 1 -2.50302543397787900e+02
3677 1 -2.10010726106007581e+02
3678 1 -2.87281889540218117e+02
3679 1 -1.85312638699049721e+01
3680 1 -2.75603737020905555e+02
3681 1 4.57649864137247864e+00
3682 1 1.91732067166849532e+02
3683 1 1.11507830597365157e+02
3684 1 1.09044520266636013e+02
3685 1 -1.70447222526712892e+02
3686 1 -6.55273162480733440e+00
3687 1 -3.45117052938511222e+01
3688 1 -5.52871261998938621e+01
3689 1 -3.32944738319115956e+01
3690 1 -2.82295353660548258e+01
3691 1 3.39195282087407151e+01
3692 1 7.26390439306231457e+01
3693 1 5.28370099817281442e+01
3694 1 5.64581336933072961e+01
3695 1 8.41558117862230404e+01
3696 1 9.09713539584138857e+01
3697 1 9.08164057747052311e+01
3698 1 7.58626128460699931e+01
3699 1 9.60682892173815759e+01
3700 1 9.80289502382262299e+01
3701 1 6.13548460463658571e+01
3702 1 -3.30823341610735497e+02
3703 1 -2.30547913193683172e+02
3704 1 -9.31020109527877793e+00
3705 1 -8.21430502737048727e+01
3706 1 -1.12323972412091564e+01
3707 1 -1.00521730774196371e+02
3708 1 -3.47537395000393190e+02
3709 1 -3.32523878751315181e+02
3710 1 -9.43425015082646382e+02
3711 1 -6.01572931859615437e+02
3712 1 -1.52561054257754176e+03
3713 1 -8.89633638232112389e+02
3714 1 -1.04281760561460737e+03
3715 1 -1.11702207075804859e+03
3716 1 -7.34273649998707469e+02
3717 1 -6.34870112406980866e+02
3718 1 -7.01828106753908401e+02
3719 1 -1.10245750220774858e+03
3720 1 -5.17754988445169829e+02
3721 1 1.95710842482304571e+02
3722 1 -9.73880010774689424e+01
3723 1 -8.98560070453980870e+01
3724 1 -6.15392697821465120e+01
3725 1 -6.55851970238023512e+01
3726 1 4.28827804420479950e+01
3727 1 5.80463698477529633e+01
3728 1 9.30590965102965839e+01
3729 1 6.70079233058101238e+01
3730 1 6.23679407777695474e+01
3731 1 3.32990424662395625e+01
3732 1 4.62865429413394409e+01
3733 1 3.75546186297050966e+01
3734 1 1.97196677982019395e+01
3735 1 -2.55877109676419634e+00
3736 1 1.02594872047023493e+01
3737 1 5.29473471748604840e+00
3738 1 1.13941533790313144e+02
3739 1 1.94884075721087243e+02
3740 1 1.24477956136066737e+02
3741 1 3.51709559658147668e+02
3742 1 3.06122412750557032e+02
3743 1 2.62100036153272924e+02
3744 1 3.69868012639550557e+02
3745 1 4.39956620401922237e+02
3746 1 5.48307582153345379e+02
3747 1 3.41526448803190476e+02
3748 1 1.69004728351569469e+02
3749 1 9.97140326710064073e+02
3750 1 3.98837646821755129e+02
3751 1 2.05355991754427720e+02
3752 1 1.83959644671873477e+01
3753 1 2.77850739581513972e+03
3754 1 -2.49644550194994025e+02
3755 1 -2.98122451659049261e+02
3756 1 -3.18470484812823145e+02
3757 1 -5.68967146498793923e+01
3758 1 -1.40654093945675100e+02
3759 1 6.37975876250282354e+01
3760 1 3.91907227599802582e+02
3761 1 4.76829858256826924e+02
3762 1 2.32354171460180055e+02
3763 1 1.58795624154986911e+02
3764 1 -7.10577830835951545e+01
3765 1 1.09200117951136164e+02
3766 1 8.40601462899119412e+01
3767 1 1.65867259475412823e+02
3768 1 -2.58177214941850330e+01
3769 1 2.60950621908037192e+02
3770 1 3.53663834567554886e+02
3771 1 3.03665973005549404e+02
3772 1 1.96788077635673346e+02
3773 1 2.12173440326741797e+02
3774 1 9.01116914295475766e+01
3775 1 9.46548387342866278e+01
3776 1 7.26519487300002140e+01
3777 1 1.30383605098952415e+02
3778 1 1.15151427882652584e+02
3779 1 1.41254618822832271e+02
3780 1 1.52292046165702374e+02
3781 1 2.14134872506431890e+02
3782 1 2.20046352159990931e+02
3783 1 -1.73538905970736238e+02
3784 1 -3.28791131150115746e+02
3785 1 -7.57061093908813405e+02
3786 1 -3.01773541780252458e+02
3787 1 -1.05445478403940939e+02
3788 1 -1.62078208895681882e+02
3789 1 -1.58749754093893159e+02
3790 1 -1.07065671549484961e+02
3791 1 -5.38754715464969447e+00
3792 1 2.87101729653687698e+01
3793 1 2.14679249118322844e+01
3794 1 1.07344446495524313e+01
3795 1 2.83381080351334020e+01
3796 1 -1.38658859092191119e+03
3797 1 -1.35636468446796835e+03
3798 1 1.80694319841709330e+01
3799 1 3.60428064010092044e+02
3800 1 -9.44606040897872248e+01
3801 1 -1.98952145639223204e+02
3802 1 -6.26220201705286286e+01
3803 1 -9.59977209736130135e+01
3804 1 1.95461056483372033e+02
3805 1 1.88240446278671072e+02
3806 1 2.84797091598468967e+02
3807 1 1.81782639127573304e+02
3808 1 1.47211289152569975e+02
3809 1 2.41885097970230333e+02
3810 1 8.72829490809405684e+01
3811 1 3.04592031345469479e+02
3812 1 -1.15624419833721277e+03
3813 1 5.75893272407613722e+02
3814 1 4.59046110947781045e+01
3815 1 -2.34967375520002477e+01
3816 1 2.11805767960498912e+02
3817 1 -4.19773363467288334e+02
3818 1 -1.83703657131221263e+02
3819 1 -7.88437785351419620e+02
3820 1 -1.83176839440300228e+02
3821 1 1.03193866338302769e+02
3822 1 7.56212708738213593e+01
3823 1 -2.07774428788724663e+02
3824 1 -6.38680060090558754e+02
3825 1 -1.53993733328189387e+03
3826 1 -1.72296798343525950e+02
3827 1 -5.25504454405103957e+02
3828 1 -2.70972534669146683e+02
3829 1 1.25807417086712135e+02
3830 1 1.13378276837230331e+02
3831 1 1.39027595481393689e+02
3832 1 1.49132187683782433e+02
3833 1 -9.72308930992141995e+00
3834 1 1.92983842904401058e+02
3835 1 1.75751752243232943e+02
3836 1 1.31061517070115002e+02
3837 1 1.66069138323525124e+02
3838 1 1.73167305541063712e+02
3839 1 1.90907899749583379e+02
3840 1 2.64368734879838371e+02
3841 1 2.33185253782109868e+02
3842 1 1.40138160738739515e+02
3843 1 1.02411298490140567e+02
3844 1 2.23756349943194266e+02
3845 1 1.96388903867806562e+02
3846 1 1.53884635409073866e+02
3847 1 7.30033449059566806e+01
3848 1 4.37410113641729603e-01
3849 1 1.11067857334519118e+02
3850 1 1.77744323184802255e+02
3851 1 2.23815343825413635e+02
3852 1 2.17154053638545832e+02
3853 1 2.47168795813577191e+02
3854 1 2.38513939226940238e+02
3855 1 -1.30082998076349355e+02
3856 1 4.25714081230343652e+02
3857 1 -2.74293622113335573e+02
3858 1 -2.83652664391177609e+02
3859 1 -1.43408879625796402e+02
3860 1 -7.39532278556072129e+02
3861 1 -5.61744609676618325e+02
3862 1 -5.63945296728952826e+02
3863 1 -3.72064333208795176e+02
3864 1 -6.21697526517623146e+02
3865 1 -2.64830081031671739e+02
3866 1 -1.05698187278616888e+03
3867 1 -6.17876214406226495e+02
3868 1 -3.79953641831905941e+02
3869 1 -5.75947198468606189e+02
3870 1 -3.02918241597687825e+02
3871 1 -1.46265664165356043e+02
3872 1 -1.59038208613877714e+02
3873 1 -2.25992244835541442e+02
3874 1 -1.39916120566987729e+02
3875 1 -2.25797775700295404e+02
3876 1 -3.20268429663290419e+02
3877 1 -1.42621187274754988e+02
3878 1 -4.03754571862339560e+02
3879 1 -2.52944018490259936e+02
3880 1 8.31610119038424074e+01
3881 1 -1.66648021113937261e+02
3882 1 3.53810475157186133e+01
3883 1 3.70060447419530703e+02
3884 1 7.82590450333900208e+02
3885 1 4.91605978859280199e+01
3886 1 -4.07848627009238214e+02
3887 1 2.86935179451152010e+02
3888 1 -3.35251673342391783e+01
3889 1 2.05911383987216254e+02
3890 1 -1.98435450363605270e+02
3891 1 -4.57574767450706645e+02
3892 1 1.74897907056411412e+01
3893 1 4.32852871424520669e-01
3894 1 8.62051882382900736e+00
3895 1 1.02438309139542163e+01
3896 1 7.00095139707844982e+00
3897 1 3.26409755816649394e+01
3898 1 1.68263375259908265e+01
3899 1 4.88029138520827757e+02
3900 1 -2.28408250059606246e+02
3901 1 -6.17859055834168274e+01
3902 1 -2.10994446291239086e+02
3903 1 -2.16157015127367544e+02
3904 1 -3.53652164448886651e+02
3905 1 -3.98081574160985781e+02
3906 1 -2.82288752545141460e+03
3907 1 -1.31894764052258006e+03
3908 1 -1.02319759895777747e+03
3909 1 -1.69287737191633170e+02
3910 1 -9.05035256187574078e+02
3911 1 -1.34303952042809073e+02
3912 1 -1.18692061411691313e+02
3913 1 -9.01270443666010266e+01
3914 1 -1.18462824303293814e+02
3915 1 -1.79400062546085508e+02
3916 1 -1.06486600881003923e+02
3917 1 -1.01753595074708286e+02
3918 1 -3.60689974808597071e+01
3919 1 -2.46806109033361338e+02
3920 1 -3.64230622341285823e+02
3921 1 1.05142415503999302e+01
3922 1 -4.34203182362093969e+01
3923 1 6.18186996483233813e+01
3924 1 1.91184688025246317e+02
3925 1 -1.74083518753217028e+01
3926 1 -7.17936525524332865e+01
3927 1 9.72802974804655491e+01
3928 1 -2.55478661719478964e+02
3929 1 1.62129151711488134e+02
3930 1 -3.06722330853913945e+02
3931 1 -8.59553569175004100e+01
3932 1 -5.35855461581557933e+01
3933 1 -8.67883931791651122e+01
3934 1 1.59714392812938996e+02
3935 1 -2.20083863720064812e+02
3936 1 -1.90291116210610312e+02
3937 1 1.29900427543267313e+02
3938 1 7.78810014812389397e+01
3939 1 1.59443219316091415e+02
3940 1 7.68150266647924838e+01
3941 1 -4.95995354472133201e+01
3942 1 5.13967830219237953e+02
3943 1 2.70858796497344713e+02
3944 1 3.13640128914105730e+02
3945 1 2.51350155098683302e+02
3946 1 1.69822286365033818e+02
3947 1 1.99267333967289147e+02
3948 1 1.53226841780367948e+02
3949 1 1.24582940028329148e+02
3950 1 1.11421829280477809e+02
3951 1 1.31289724951811252e+02
3952 1 1.68516572973540690e+02
3953 1 1.04446514001330016e+02
3954 1 8.04688363429438311e+01
3955 1 2.25577067924307897e+02
3956 1 2.45725536870075331e+02
3957 1 2.03693717017036221e+02
3958 1 1.37106056430594407e+02
3959 1 -1.31983014265726581e+02
3960 1 5.74127882677614743e+00
3961 1 2.88397349164152388e+02
3962 1 -3.90281914427810136e+02
3963 1 -3.39880229823085244e+02
3964 1 -4.77184267228411727e+02
3965 1 -3.30573787330416110e+02
3966 1 7.04348320234741010e+01
3967 1 2.89978573376530221e+02
3968 1 -6.50084498913120825e+01
3969 1 1.25595058953944601e+02
3970 1 -5.17820681335741710e+02
3971 1 -1.70931922409784261e+03
3972 1 -1.36644474395655152e+03
3973 1 -6.22863745558430423e+02
3974 1 -3.77123332218122300e+02
3975 1 8.06442562277518249e+00
3976 1 4.25744603756453841e+02
3977 1 2.93641984783698319e+02
3978 1 4.04767168383901250e+01
3979 1 3.12228985143027664e+01
3980 1 2.60693477909906441e+01
3981 1 3.75039006103214021e+01
3982 1 4.63044610046605172e+01
3983 1 3.00690889967982969e+02
3984 1 -3.34045495887208972e+02
3985 1 1.08196662635671174e+02
3986 1 -4.61602730903247220e+02
3987 1 -3.65821677228385340e+02
3988 1 -3.27731721727551417e+02
3989 1 -2.28680837786631002e+02
3990 1 -1.39887931359755100e+02
3991 1 -8.82856681354823820e+01
3992 1 -9.84872664295777298e+01
3993 1 -8.69276318155683754e+01
3994 1 6.37239279864997741e+01
3995 1 6.49140452597335553e+01
3996 1 6.56114691556714718e+01
3997 1 6.27292889216883651e+01
3998 1 6.99051403568242762e+01
3999 1 6.35217331672499839e+01
4000 1 6.44819855321102438e+01
4001 1 6.23382515890429332e+01
4002 1 7.87348252518033132e+00
4003 1 1.76394921534844817e+00
4004 1 1.82409399653822959e+01
4005 1 -7.34176697957473834e+02
4006 1 4.51862530350219416e+01
4007 1 1.52410213944836581e+01
4008 1 1.60858218328623543e+01
4009 1 5.27596391504279381e+02
4010 1 -3.07091056278628871e+00
4011 1 4.45093469453237134e+01
4012 1 2.65602039233414473e+02
4013 1 7.02204842171121015e+01
4014 1 5.28163686410027324e+01
4015 1 7.21369268699739479e+01
4016 1 7.92082896042715419e+01
4017 1 6.23705418400394080e+01
4018 1 6.31623747121858941e+01
4019 1 8.31002711205767923e+01
4020 1 2.21432913537175846e+00
4021 1 6.96453895905764897e-01
4022 1 -3.22091484853129106e+00
4023 1 -2.40344941044061500e+01
4024 1 4.61637639953205614e+00
4025 1 3.17192823358643352e+01
4026 1 3.68734961818511087e+00
4027 1 5.26629844909712119e+01
4028 1 5.60844418861741545e+01
4029 1 1.10693215609222847e+02
4030 1 9.67570740677998202e+01
4031 1 4.74440329906547547e+01
4032 1 3.54481256970769039e+01
4033 1 3.57936866443177735e+01
4034 1 1.77434698333719621e+03
4035 1 1.29796069929189258e+02
4036 1 1.39089887338193790e+02
4037 1 2.48777426089544633e+01
4038 1 5.27501908309099917e+02
4039 1 1.91382986561982847e+02
4040 1 1.30034726165147646e+02
4041 1 2.32748068883890028e+02
4042 1 2.95635550090730362e+02
4043 1 1.77581946057919964e+02
4044 1 2.64678452551391786e+02
4045 1 6.24525228931051331e+01
4046 1 1.52953712670325928e+02
4047 1 1.11427595984852118e+02
4048 1 1.59340786408610398e+02
4049 1 -1.59802554770682991e+03
4050 1 6.36376786632647054e+02
4051 1 -1.65829081698679744e+02
4052 1 -1.91815557638278335e+02
4053 1 4.75176550512320617e+01
4054 1 1.54683009536010161e+02
4055 1 1.20193539353794279e+02
4056 1 6.73564449202626747e+01
4057 1 3.28455392029607935e+02
4058 1 -5.47144984778929711e+02
4059 1 -6.88672252383002046e+02
4060 1 -2.73578998515352545e+01
4061 1 -4.90872666262117647e+01
4062 1 9.94647043220866180e+01
4063 1 6.52502425314716135e+01
4064 1 3.99413424715244560e+02
4065 1 3.17790514666376680e+02
4066 1 -6.58238931698976870e+01
4067 1 3.88696931172321314e+01
4068 1 -5.85307324294047362e+01
4069 1 -4.82741484102179470e+01
4070 1 2.94341878093889768e+01
4071 1 -5.10514130041305165e+01
4072 1 -5.98009731125991379e+01
4073 1 -9.46164040067350811e+02
4074 1 -3.01161935750580199e+02
4075 1 -4.44878175114261524e+02
4076 1 -1.66660431107571753e+02
4077 1 -8.23133222595226499e+01
4078 1 8.18811636255757520e+01
4079 1 2.57891018293277057e+01
4080 1 1.84613933224095028e+01
4081 1 1.02279550009507112e+01
4082 1 2.11470773651153543e+00
4083 1 7.67276829834677354e+00
4084 1 1.43403916452303637e+01
4085 1 8.40774937007464729e+00
4086 1 4.70626541757288877e+01
4087 1 2.47814920458441463e+01
4088 1 6.16907745050125413e+01
4089 1 7.53754947054017066e+01
4090 1 -3.81669878465933579e+01
4091 1 3.16507751763510363e+01
4092 1 2.65426100976659924e+01
4093 1 2.47626157976655037e+01
4094 1 1.34647474369971860e+01
4095 1 4.96045410156077260e+00
4096 1 1.98533256281764210e+01
4097 1 4.39501634814256477e+01
4098 1 5.45052711927078661e+01
4099 1 4.74700328021439546e+01
4100 1 3.87731814235696532e+01
4101 1 3.50095705890221893e+01
4102 1 4.01063634275970671e+01
4103 1 3.17825915159718342e+01
4104 1 5.23759463294725904e+01
4105 1 4.02771813337739388e+01
4106 1 4.75966111197182045e+01
4107 1 6.13495633881096722e+01
4108 1 4.54277931792878107e+01
4109 1 3.14726130592877240e+01
4110 1 2.46846982889853450e+01
4111 1 -4.95525360901658374e+01
4112 1 9.76180091293124832e+01
4113 1 7.82517685598683954e+01
4114 1 6.97895772752216601e+01
4115 1 8.37010797004328708e+01
4116 1 6.83164069474955795e+01
4117 1 7.01268755343596837e+01
4118 1 7.37247587695374307e+01
4119 1 7.27927690401854477e+01
4120 1 7.24282709458596941e+01
4121 1 7.45494423404689996e+01
4122 1 7.52017517596418230e+01
4123 1 3.81954045166107363e+01
4124 1 3.58821385417964649e+01
4125 1 5.54270208998977978e+01
4126 1 8.56853604014498416e+00
4127 1 1.30095820370346075e+02
4128 1 1.46637269624833067e+02
4129 1 1.13151571109591458e+02
4130 1 8.29924345208426786e+01
4131 1 8.74330202896025526e+01
4132 1 7.83248919584827661e+01
4133 1 -4.48026574563975998e+02
4134 1 -9.59626689684558016e+01
4135 1 -1.18668842217336510e+03
4136 1 -9.14727145660233759e+02
4137 1 -6.89144106765374886e+02
4138 1 2.41147983205047922e+03
4139 1 4.26206201184122193e+01
4140 1 -1.63811937807584371e+01
4141 1 6.31142137365880203e+01
4142 1 7.02481386566609444e+02
4143 1 1.11545740181836138e+02
4144 1 3.62102518522625758e+02
4145 1 3.18314148451702366e+01
4146 1 7.20606426866123400e+01
4147 1 6.28990313348671179e+01
4148 1 1.31872583797710291e+02
4149 1 -2.58331884152092414e+02
4150 1 -1.19606621935883481e+02
4151 1 5.36326988317037845e+01
4152 1 5.22224856929311017e+01
4153 1 6.25880846520735261e+01
4154 1 2.32983882447571702e+01
4155 1 -2.99494086352691546e+01
4156 1 -3.46819309342796078e+00
4157 1 4.49136400545204538e+02
4158 1 4.47884101623044273e+02
4159 1 4.50714490945981993e+02
4160 1 4.48841991726739934e+02
4161 1 9.72858975267451882e+01
4162 1 1.10247586767820508e+02
4163 1 4.85352611601239445e+01
4164 1 3.34960674594600505e+02
4165 1 2.24089147501859486e+02
4166 1 -3.40714414707851290e+02
4167 1 -6.50828875753442730e+01
4168 1 8.57477990519824260e+01
4169 1 8.90690342840094331e+01
4170 1 7.81453034330430967e+01
4171 1 -5.05544859327313532e+01
4172 1 4.06642846995716297e+02
4173 1 4.92388173723527274e+01
4174 1 5.62314071905821891e+01
4175 1 -7.30145608538123724e+02
4176 1 -5.79447419125704982e+02
4177 1 -5.40323337291258554e+02
4178 1 -8.02632689062920122e+02
4179 1 -9.22309501119443439e+02
