%%MatrixMarket matrix coordinate  real general
100 1 100
1 1 2.05270113573080587e-01
2 1 2.01774977451926185e-01
3 1 1.94781831047631387e-01
4 1 1.91866650395141974e-01
5 1 1.89302238638157594e-01
6 1 1.93341409771665890e-01
7 1 1.92616409731570903e-01
8 1 1.91204850446881292e-01
9 1 1.91878429287584557e-01
10 1 1.91803016170916940e-01
11 1 1.92379864418149860e-01
12 1 1.94995969720781398e-01
13 1 1.99240277615128747e-01
14 1 2.17595148727986243e-01
15 1 2.33065879719775992e-01
16 1 2.40598530918220088e-01
17 1 2.42802146065716512e-01
18 1 2.42130039201896824e-01
19 1 2.40082930774442371e-01
20 1 2.35140270850593858e-01
21 1 2.36351796577232542e-01
22 1 2.43486447407919276e-01
23 1 2.43610297063510284e-01
24 1 2.43504202591983937e-01
25 1 2.49455075111002067e-01
26 1 2.49265967055532639e-01
27 1 2.46207871927230565e-01
28 1 2.44124636372648196e-01
29 1 2.44962556875420262e-01
30 1 2.54302848706324802e-01
31 1 2.61873969020632091e-01
32 1 2.66512881083615316e-01
33 1 2.72105905982494178e-01
34 1 2.85853199989319184e-01
35 1 2.94282014970187356e-01
36 1 3.00184599309131550e-01
37 1 3.09395051912301600e-01
38 1 3.20787388447969724e-01
39 1 3.36864671811057115e-01
40 1 3.54042185145258703e-01
41 1 3.65877440154927125e-01
42 1 3.82189341249241088e-01
43 1 4.13038420518211824e-01
44 1 4.40067179935399289e-01
45 1 4.67361991461739068e-01
46 1 4.93766917488130952e-01
47 1 5.08025938322887449e-01
48 1 5.19057371884367513e-01
49 1 5.36851518612008416e-01
50 1 5.48840902476389725e-01
51 1 5.61133740454502816e-01
52 1 5.72193719707510207e-01
53 1 5.82300112642975876e-01
54 1 6.00079540131746469e-01
55 1 6.30524243502366466e-01
56 1 6.58013520103860494e-01
57 1 6.79182866575135824e-01
58 1 6.98305366214691525e-01
59 1 6.99745989991923611e-01
60 1 7.00550349266650274e-01
61 1 7.18707820271111242e-01
62 1 7.44582791809530131e-01
63 1 7.85001354173088917e-01
64 1 8.12253158011791432e-01
65 1 8.30823644524937177e-01
66 1 8.65963728513748476e-01
67 1 8.73798423626272358e-01
68 1 8.96071760886309798e-01
69 1 9.21865548966922077e-01
70 1 9.42770783837395543e-01
71 1 9.59667868505100330e-01
72 1 9.75366776749356679e-01
73 1 1.00707334822898842e+00
74 1 1.03250337943111758e+00
75 1 1.05242679884886003e+00
76 1 1.06802569641966549e+00
77 1 1.08051409285177558e+00
78 1 1.09038917748694497e+00
79 1 1.09870141267841448e+00
80 1 1.10564164057176018e+00
81 1 1.11128878383400598e+00
82 1 1.11587253838151135e+00
83 1 1.11958559499343369e+00
84 1 1.12258691570141855e+00
85 1 1.12500856077903233e+00
86 1 1.12695897666659239e+00
87 1 1.12852767513666863e+00
88 1 1.12978775874219117e+00
89 1 1.13079983725288691e+00
90 1 1.13161249591587221e+00
91 1 1.13226531080941650e+00
92 1 1.13279042327666390e+00
93 1 1.13321379610979922e+00
94 1 1.13355563688291605e+00
95 1 1.13383150893801576e+00
96 1 1.13405585631008687e+00
97 1 1.13423905719386897e+00
98 1 1.13438806461879760e+00
99 1 1.13450970849582777e+00
100 1 1.13460898832444279e+00
