%%MatrixMarket matrix coordinate  real general
100 1 100
1 1 1.70842006148816006e-01
2 1 1.65517050786007203e-01
3 1 1.66421955066662686e-01
4 1 1.66951718321944248e-01
5 1 1.66253763941213911e-01
6 1 1.64762615563623094e-01
7 1 1.61638375149324887e-01
8 1 1.66236779157861614e-01
9 1 1.69476538529471310e-01
10 1 1.75597425452351547e-01
11 1 1.80040845962193774e-01
12 1 1.89876421915630533e-01
13 1 2.02074465414157467e-01
14 1 2.11256924310644328e-01
15 1 2.17317062859157972e-01
16 1 2.19175304337208304e-01
17 1 2.19194011779921150e-01
18 1 2.17687550778032590e-01
19 1 2.13456346120768664e-01
20 1 2.09505848368886277e-01
21 1 2.13850838145611427e-01
22 1 2.14340416774638859e-01
23 1 2.15429934748995355e-01
24 1 2.20593133381163875e-01
25 1 2.24256671785514561e-01
26 1 2.25195196537903347e-01
27 1 2.25975898282024190e-01
28 1 2.25497820801359106e-01
29 1 2.27668212217438493e-01
30 1 2.43541052209051812e-01
31 1 2.51656557997824992e-01
32 1 2.56805673161766390e-01
33 1 2.66281104497677057e-01
34 1 2.80022582861444602e-01
35 1 2.88386255638471367e-01
36 1 2.95487029026409331e-01
37 1 3.05391743957064699e-01
38 1 3.17894794904894473e-01
39 1 3.36864392439791160e-01
40 1 3.51948762225706313e-01
41 1 3.63013375200899990e-01
42 1 3.85616066333879071e-01
43 1 4.17074359863590649e-01
44 1 4.41924217830233834e-01
45 1 4.69319249019710616e-01
46 1 4.93796770351459802e-01
47 1 5.07444709406543959e-01
48 1 5.17981647847860160e-01
49 1 5.37351812489863079e-01
50 1 5.47829584448696005e-01
51 1 5.60726296724556539e-01
52 1 5.71607846055295910e-01
53 1 5.80819468832546204e-01
54 1 6.00843190483513978e-01
55 1 6.32202937388546493e-01
56 1 6.59158203655422992e-01
57 1 6.79805776466899880e-01
58 1 6.97416944070859190e-01
59 1 6.98779068232050382e-01
60 1 6.99529680430077572e-01
61 1 7.17938392661692681e-01
62 1 7.47836139329719485e-01
63 1 7.87886577331182947e-01
64 1 8.13095076328968047e-01
65 1 8.32012022786930427e-01
66 1 8.66162404822795828e-01
67 1 8.73810314259845233e-01
68 1 8.97711349884997900e-01
69 1 9.23244897208732374e-01
70 1 9.43724541688972018e-01
71 1 9.60583344254853144e-01
72 1 9.76775334054630129e-01
73 1 1.00930149862942908e+00
74 1 1.03386313856796996e+00
75 1 1.05361515782680315e+00
76 1 1.06870107716647111e+00
77 1 1.08096238770435682e+00
78 1 1.09073336545195088e+00
79 1 1.09908713699265692e+00
80 1 1.10594979700393714e+00
81 1 1.11153221782303890e+00
82 1 1.11606338497723345e+00
83 1 1.11973334278573877e+00
84 1 1.12270011306295392e+00
85 1 1.12509358002189153e+00
86 1 1.12702120481981694e+00
87 1 1.12857123484932820e+00
88 1 1.12981653666384840e+00
89 1 1.13081627931662854e+00
90 1 1.13161970777497944e+00
91 1 1.13226481430014059e+00
92 1 1.13278349427954739e+00
93 1 1.13320228791601108e+00
94 1 1.13353963331346663e+00
95 1 1.13381283679554357e+00
96 1 1.13403474004563054e+00
97 1 1.13421550253817016e+00
98 1 1.13436298942960678e+00
99 1 1.13448289387135626e+00
100 1 1.13458257767481374e+00
