%%MatrixMarket matrix coordinate  real general
4175 1 4175
1 1 2.67892620185739823e+01
2 1 2.65051771915249397e+01
3 1 2.64148483547100597e+01
4 1 2.61008137452447109e+01
5 1 2.60356614621149127e+01
6 1 2.70310016582197754e+01
7 1 3.17580904468023633e+01
8 1 3.11329491568148811e+01
9 1 2.37384832879078900e+01
10 1 3.15794473055097562e+01
11 1 5.13967035333438247e+01
12 1 7.03343237077961732e+01
13 1 6.42816199201917868e+01
14 1 4.67182687151433882e+01
15 1 2.22254566617004841e+01
16 1 1.42600746798154958e+01
17 1 2.22650020489044458e+01
18 1 1.94505783902228302e+01
19 1 1.69492924460567558e+01
20 1 1.65523149206977820e+01
21 1 1.64609738402704231e+01
22 1 1.78320467442648578e+01
23 1 1.99583251714001335e+01
24 1 2.28687523700573152e+01
25 1 2.13050634744244185e+01
26 1 1.93292678628174279e+01
27 1 1.80059404699022494e+01
28 1 1.59150926543783022e+01
29 1 1.34054216089233886e+01
30 1 6.47644838614103424e+00
31 1 2.49104922061862810e+00
32 1 -3.29209580712907002e+00
33 1 -3.55533804647997842e+00
34 1 -1.94054262175370051e+00
35 1 -3.73389568792045601e-01
36 1 6.19439562674099164e+00
37 1 1.14152055790282674e+01
38 1 1.37979448166025271e+01
39 1 1.29371776717105700e+01
40 1 1.26287977800117783e+01
41 1 1.22197924764992258e+01
42 1 1.20245442010229517e+01
43 1 1.28004508901562151e+01
44 1 1.48691456399002853e+01
45 1 1.60807752525922325e+01
46 1 1.74503679039254997e+01
47 1 2.24776376962991371e+01
48 1 2.43949079313275377e+01
49 1 1.97871672688759084e+01
50 1 1.76908147540338057e+01
51 1 1.65762136646871632e+01
52 1 1.61403147219147947e+01
53 1 1.60325223079331742e+01
54 1 1.54825408644233882e+01
55 1 1.53555541358450576e+01
56 1 1.53761366149134080e+01
57 1 1.53732212799454491e+01
58 1 1.50927570206901720e+01
59 1 1.45270138229714565e+01
60 1 1.38184529755793672e+01
61 1 1.23582605720154515e+01
62 1 1.08405469823051366e+01
63 1 1.00047045547758291e+01
64 1 9.38395419810209575e+00
65 1 8.42578917667949945e+00
66 1 7.92379887604659139e+00
67 1 6.50650706729431150e+00
68 1 6.27200612340127783e+00
69 1 5.17300140673783826e+00
70 1 4.72874156882173935e+00
71 1 4.82728166218043686e+00
72 1 5.18012259218395599e+00
73 1 5.23152168368326809e+00
74 1 5.80871237816385477e+00
75 1 6.06172369831783531e+00
76 1 6.49422961335924320e+00
77 1 8.41884614346469640e+00
78 1 1.20531002058618011e+01
79 1 1.24336740656902371e+01
80 1 1.26354339113156122e+01
81 1 1.27734419608244281e+01
82 1 1.29777893804106572e+01
83 1 1.30594937148577444e+01
84 1 1.31274775018662826e+01
85 1 1.35318617038427185e+01
86 1 1.40699914582757959e+01
87 1 1.57029873697236617e+01
88 1 1.79592102127103068e+01
89 1 1.95915468346361301e+01
90 1 1.98618230367304065e+01
91 1 1.98035711127251908e+01
92 1 1.98943086707054597e+01
93 1 2.02273191347518448e+01
94 1 2.04941042051501086e+01
95 1 2.04637834653587838e+01
96 1 1.95395479108448491e+01
97 1 1.79813414742009314e+01
98 1 1.77395105908653861e+01
99 1 1.75393763711680748e+01
100 1 1.76199664317362981e+01
101 1 1.83737543047462744e+01
102 1 1.93609025696296939e+01
103 1 2.01247338182836337e+01
104 1 2.01689224811125740e+01
105 1 2.03097419214048109e+01
106 1 2.03235749121580298e+01
107 1 2.09105869551041472e+01
108 1 2.20291832117762389e+01
109 1 1.95002976479563550e+01
110 1 1.53205425781669948e+01
111 1 1.22853764596668213e+01
112 1 1.14075256874075386e+01
113 1 1.15315665782608843e+01
114 1 1.21503568598078058e+01
115 1 1.24793866418157453e+01
116 1 1.44356367398572640e+01
117 1 1.43901227804876779e+01
118 1 1.26679027285078547e+01
119 1 6.72073909605424724e+00
120 1 4.52774388454728705e+00
121 1 2.05593712916842630e+00
122 1 2.03081235076969691e+00
123 1 2.83554669737764131e+00
124 1 3.53137267533389254e+00
125 1 8.64535577992922200e+00
126 1 9.47593180711136007e+00
127 1 1.06932317778028807e+01
128 1 1.68355262909354799e+01
129 1 1.92763181643163755e+01
130 1 1.99112618089115685e+01
131 1 1.97641308802718427e+01
132 1 1.88786102165074574e+01
133 1 1.79540653586620707e+01
134 1 1.67616657588421667e+01
135 1 1.68190947243011308e+01
136 1 1.82344606040440702e+01
137 1 1.95997996774232917e+01
138 1 1.88069611992826076e+01
139 1 1.51441493308787454e+01
140 1 9.08876484137387308e+00
141 1 7.51871413125279275e+00
142 1 7.15580156793667754e+00
143 1 5.96579318304264472e+00
144 1 6.01552828383366833e+00
145 1 7.20692888752372607e+00
146 1 7.84258198925214334e+00
147 1 9.95886946588156619e+00
148 1 1.12548539226759328e+01
149 1 1.28427588015242122e+01
150 1 1.53482247147288078e+01
151 1 1.72904370591337759e+01
152 1 2.06989482587413356e+01
153 1 2.05825824026714272e+01
154 1 1.78526826182735796e+01
155 1 1.61687302667946966e+01
156 1 1.54360876341652453e+01
157 1 1.53298254288374700e+01
158 1 1.55512577843249744e+01
159 1 1.63722013365912922e+01
160 1 1.74562765010413550e+01
161 1 1.77972659779983680e+01
162 1 1.93462583471841398e+01
163 1 2.10470690390648478e+01
164 1 2.44625178152149978e+01
165 1 2.61760618959194531e+01
166 1 3.00803458318216563e+01
167 1 3.07707020084856531e+01
168 1 3.08884050410910369e+01
169 1 3.10663758127354654e+01
170 1 3.11124693282048206e+01
171 1 3.11341755398965532e+01
172 1 3.10875299396475668e+01
173 1 3.10654110135663473e+01
174 1 3.12945221335245876e+01
175 1 3.16507819767793421e+01
176 1 2.97956412054126858e+01
177 1 2.46062543660505071e+01
178 1 1.92103074159609939e+01
179 1 1.84948063084807472e+01
180 1 1.81267355436244948e+01
181 1 1.79764797535062790e+01
182 1 1.79176068106715825e+01
183 1 1.79935071158730011e+01
184 1 1.78032542279146639e+01
185 1 1.60972199551803214e+01
186 1 1.41847844554341904e+01
187 1 1.32100490617348907e+01
188 1 1.34314461160836611e+01
189 1 1.37223137276459397e+01
190 1 1.81471361899530983e+01
191 1 2.50324676071196457e+01
192 1 3.39865072546374449e+01
193 1 3.27981447978373382e+01
194 1 1.49057584944100245e+01
195 1 2.49971436258382340e+01
196 1 2.46911733303072651e+01
197 1 2.39409261320336739e+01
198 1 2.30408536304566844e+01
199 1 1.85112807741985748e+01
200 1 1.63613416884411471e+01
201 1 1.38411990638188058e+01
202 1 1.15311340994831646e+01
203 1 8.61857389942974272e+00
204 1 8.07734901438584885e+00
205 1 6.91068056745554582e+00
206 1 6.61870469987388077e+00
207 1 6.50671147538088235e+00
208 1 6.60162826438531170e+00
209 1 6.87248157360329071e+00
210 1 7.85299049514484260e+00
211 1 8.17086766035942524e+00
212 1 1.01528600114552621e+01
213 1 1.12205988982600733e+01
214 1 1.09178319772760517e+01
215 1 9.58251461753784639e+00
216 1 8.43472151467722497e+00
217 1 8.13865863101170817e+00
218 1 8.39178250444943963e+00
219 1 9.03516968244043817e+00
220 1 1.13420147762323502e+01
221 1 1.23988315567568161e+01
222 1 1.41347126558522405e+01
223 1 1.48516748814346542e+01
224 1 1.53154152330492028e+01
225 1 1.65119797454448118e+01
226 1 1.81771087240448388e+01
227 1 1.68317481205370996e+01
228 1 1.57383250495050930e+01
229 1 1.33830485727012896e+01
230 1 1.16367678488349693e+01
231 1 1.14849971890841509e+01
232 1 1.31347463618198628e+01
233 1 1.63318350688956215e+01
234 1 1.89595387328533391e+01
235 1 1.94573013667939207e+01
236 1 1.92366755101460463e+01
237 1 1.82399389774538285e+01
238 1 1.81525529867667288e+01
239 1 1.81087048745838040e+01
240 1 1.81621896857780385e+01
241 1 1.82761323055486429e+01
242 1 1.85167125777539106e+01
243 1 1.86871801278683627e+01
244 1 1.90065724547358137e+01
245 1 1.93209102542683695e+01
246 1 1.98694515745901015e+01
247 1 2.04885388218687368e+01
248 1 2.01002336881084389e+01
249 1 1.85217193828135329e+01
250 1 2.94978731169378641e+01
251 1 4.01416767233592395e+01
252 1 4.47524812293904688e+01
253 1 5.02033696680248340e+01
254 1 5.20474927014838116e+01
255 1 5.15014384553860722e+01
256 1 4.95344481269134036e+01
257 1 2.96158505934254812e+01
258 1 2.54033556176896234e+01
259 1 3.34047388851751350e+01
260 1 3.02460588592153385e+01
261 1 2.89699752457424182e+01
262 1 3.25443148750710591e+01
263 1 3.21951762121537115e+01
264 1 3.06189626456013393e+01
265 1 2.81904480645392290e+01
266 1 2.70476462120732535e+01
267 1 6.56027293197604777e+00
268 1 1.53192030331531530e+01
269 1 2.24112937272811337e+01
270 1 2.23237706574978922e+01
271 1 2.20521297205092495e+01
272 1 2.09215427277256758e+01
273 1 2.03393630735454245e+01
274 1 2.19698092435853365e+00
275 1 2.92147638538415055e+00
276 1 2.08073429856901404e+00
277 1 1.80589140349626192e+01
278 1 1.17271495766155862e+01
279 1 2.71839385313932560e+01
280 1 3.11592810893530441e+01
281 1 7.05592725545362676e+00
282 1 1.03393720382155596e+01
283 1 8.46933475817236570e+00
284 1 3.29881550989402186e+01
285 1 3.27391996994446117e+01
286 1 2.16540999170915356e+01
287 1 1.84383158752834966e+01
288 1 1.39669213925347755e+01
289 1 1.35240735731890052e+01
290 1 1.84151659028855583e+01
291 1 1.62225823666555797e+01
292 1 8.26810234633891383e+00
293 1 3.91978983665967107e+00
294 1 6.33822813014587094e-01
295 1 1.63814561719649987e+01
296 1 1.26449674599644624e+01
297 1 3.08794535956281280e+01
298 1 1.01868835326803069e+01
299 1 7.95901590955275928e+00
300 1 3.30893494886478479e+01
301 1 2.22503649247171005e+01
302 1 1.89963606817098025e+01
303 1 1.80622450323705870e+01
304 1 8.92232484193889164e+00
305 1 1.50392746913854456e+01
306 1 1.94547047709459662e+01
307 1 1.94752620320718641e+01
308 1 1.53876632920787060e+01
309 1 2.13855166877534870e+01
310 1 2.43436347962827284e+01
311 1 1.08758004316350902e+01
312 1 2.01221761237103181e+01
313 1 1.80073197613913116e+01
314 1 1.63274703168388768e+01
315 1 1.96332535596444231e+01
316 1 1.94734138498077094e+01
317 1 2.78649003963103574e+01
318 1 3.11552109085542348e+01
319 1 2.52029598702564073e+01
320 1 5.05183079656266614e+01
321 1 1.17893396805959938e+01
322 1 3.72797492077204069e+01
323 1 2.51463199049460258e+01
324 1 2.71622156096462497e+01
325 1 1.48691534109856303e+01
326 1 1.10913660468913093e+01
327 1 2.48821594371598813e+01
328 1 2.85426697087914398e+01
329 1 1.87937814035110016e+01
330 1 1.61504631324586470e+01
331 1 5.34658019044049304e+00
332 1 6.34198789559289366e+00
333 1 2.19815441069490021e+01
334 1 2.04365237251858716e+01
335 1 1.56353913901686887e+01
336 1 5.44689118683887052e+00
337 1 1.76629865665145864e+01
338 1 1.58063661110046336e+01
339 1 2.89874903345002828e+01
340 1 2.78030845569916032e+01
341 1 2.12000496212776497e+01
342 1 8.94318442779740863e+00
343 1 2.91500684053036778e+01
344 1 2.79131212185858217e+01
345 1 2.01504562559383480e+01
346 1 1.95801236642603946e+01
347 1 9.62964011531278352e+00
348 1 5.97434031492675377e+00
349 1 1.17715227351039733e+01
350 1 2.67718672782269351e+01
351 1 2.17618731878898402e+01
352 1 1.82087242871271116e+01
353 1 1.12107260338931791e+01
354 1 8.65950235780503874e+00
355 1 2.62320479366153698e+01
356 1 3.99551992783876244e+01
357 1 3.47216132526665291e+01
358 1 3.23910390265174968e+01
359 1 3.21391045226900118e+01
360 1 2.17377885860354638e+01
361 1 3.26919637990536671e+01
362 1 2.88569276808542092e+01
363 1 1.11752735597648627e+01
364 1 3.12752769403137272e+01
365 1 3.90417064720733862e+01
366 1 2.86260006371902236e+01
367 1 1.92011266519575194e+01
368 1 1.87062887154994790e+01
369 1 1.60707257500122829e+01
370 1 1.24212868397649157e+01
371 1 1.54935801664665629e+01
372 1 2.10080956137172379e+01
373 1 3.17694438975974727e+01
374 1 3.38481228156651355e+01
375 1 1.38650818472889288e+01
376 1 1.57403917259553605e+01
377 1 1.60254844707840967e+01
378 1 1.70068614148443018e+01
379 1 1.64333118678735346e+01
380 1 1.67813637816637957e+01
381 1 1.61884942459645025e+01
382 1 1.41282021080610782e+01
383 1 1.66219213209822136e+01
384 1 1.54653114827435125e+01
385 1 1.50366307539286961e+01
386 1 1.44865557469423791e+01
387 1 2.48081027009773116e+01
388 1 2.56571094571673726e+01
389 1 2.87344935255201648e+01
390 1 1.94211184779536339e+01
391 1 2.16703557879449171e+01
392 1 2.19391898245695636e+01
393 1 2.12855428281439671e+01
394 1 2.25079145049951634e+01
395 1 2.02558349066559558e+01
396 1 5.63964107967894606e+01
397 1 1.92194750961237872e+01
398 1 1.87242295660862830e+01
399 1 2.40968532109565530e+01
400 1 2.58874021919816073e+01
401 1 2.06161089681658858e+01
402 1 1.86212191728118697e+01
403 1 2.55256105599107244e+01
404 1 2.04682381156136017e+01
405 1 2.88513748580136422e+01
406 1 2.95533670981345757e+01
407 1 3.13040945135761461e+01
408 1 3.03115109506788549e+01
409 1 2.86351566332327003e+01
410 1 1.75980622207264332e+01
411 1 2.38776867129074368e+01
412 1 1.64999183948884074e+01
413 1 1.60946796598294775e+01
414 1 1.65409401788208292e+01
415 1 1.71197274417078518e+01
416 1 1.80476374265393744e+01
417 1 1.68375301548448491e+01
418 1 1.80478941418678716e+01
419 1 1.89658545759649080e+01
420 1 1.77949932903228927e+01
421 1 1.86729159877896791e+01
422 1 1.81103464343394087e+01
423 1 1.60977746490564115e+01
424 1 1.44177026816875777e+01
425 1 2.49130063961465531e+01
426 1 1.93748344862533202e+01
427 1 2.42352459060237990e+01
428 1 2.12325750639587412e+01
429 1 2.26661515162746099e+01
430 1 3.25687082512713815e+01
431 1 2.79087993220499975e+01
432 1 2.12608474236169158e+01
433 1 2.08823347315394514e+01
434 1 3.92200747609066909e+01
435 1 2.77249020780550772e+01
436 1 1.67455609755270629e+01
437 1 1.96600239756938677e+01
438 1 1.57359307877059873e+01
439 1 1.29415245184456342e+01
440 1 4.62944507960911196e+01
441 1 2.69716390290739874e+01
442 1 1.47633749533701621e+01
443 1 2.01866439402405078e+01
444 1 1.83587478567004148e+01
445 1 2.23785804417950303e+01
446 1 1.59715778328967506e+01
447 1 1.86528965767185930e+01
448 1 3.19554872210377994e+01
449 1 3.78317026051956091e+01
450 1 3.01213476650210694e+01
451 1 3.25927845750386282e+01
452 1 2.42897353574022645e+01
453 1 3.66360876467117862e+01
454 1 2.00740900383778325e+01
455 1 1.02362689881114619e+01
456 1 1.13869039941959240e+01
457 1 1.33986038274623347e+01
458 1 1.39850375988717825e+01
459 1 1.24875700424623748e+01
460 1 1.80459220749298552e+01
461 1 1.10006807661787338e+01
462 1 8.89579514866049692e+00
463 1 1.38512720440043271e+01
464 1 1.52266701296856457e+01
465 1 1.63882050058761735e+01
466 1 1.49777124038788472e+01
467 1 8.79643623497905658e+00
468 1 1.67034305943059458e+01
469 1 2.28504453575759570e+01
470 1 3.09913803820938405e+01
471 1 9.50287039416964419e+00
472 1 1.32226069371154331e+01
473 1 1.41828250014835060e+01
474 1 1.58360119742879260e+01
475 1 1.54064147402668166e+01
476 1 1.67587249527905549e+01
477 1 2.69026390177311718e+01
478 1 1.43907649691446533e+01
479 1 3.57316972542866935e+01
480 1 2.09791841736909959e+01
481 1 2.56904877004841516e+01
482 1 2.50996821892456623e+01
483 1 5.37127254798685438e+00
484 1 3.03011583815137726e+01
485 1 2.57885479285331414e+01
486 1 3.11801953014218398e+01
487 1 3.15597553509434299e+01
488 1 2.57670446421847856e+01
489 1 2.74324606296568376e+01
490 1 2.45193496118358283e+01
491 1 2.55756215750035807e+01
492 1 2.54216740399054615e+01
493 1 2.43448424695780936e+01
494 1 3.36816854037218931e+01
495 1 2.82724577385510045e+01
496 1 3.04313211302090636e+01
497 1 2.56228104318440479e+01
498 1 2.69940581700467988e+01
499 1 2.06738485760864812e+01
500 1 1.78764807529020864e+01
501 1 2.90421244103816782e+01
502 1 1.77100709152546330e+01
503 1 1.61636840921230309e+01
504 1 1.52454745865221888e+01
505 1 1.57368047398900597e+01
506 1 2.41470449578361190e+01
507 1 2.04442411469272223e+01
508 1 2.20447087409175850e+01
509 1 2.01656084546656906e+01
510 1 1.62726267352102703e+01
511 1 1.80962795091726711e+01
512 1 2.39128908321579452e+01
513 1 1.06814885591881783e+01
514 1 1.32916457774700039e+01
515 1 2.19433280090541274e+01
516 1 1.55084286069182511e+01
517 1 1.85785579715735452e+01
518 1 3.63498786682133144e+01
519 1 2.63195462143856105e+01
520 1 3.62515149071186897e+01
521 1 2.44660510891023399e+01
522 1 2.12506575524875814e+01
523 1 3.22459051502537832e+01
524 1 3.67172779659447812e+01
525 1 3.64980248677408952e+01
526 1 2.83698908841228992e+01
527 1 3.07432607025309181e+01
528 1 2.98904811480502772e+01
529 1 2.92195030513555594e+01
530 1 3.10268547951511238e+01
531 1 3.95012399376269130e+01
532 1 3.40915951739543033e+01
533 1 3.16198599498688750e+01
534 1 3.04281040919448671e+01
535 1 2.90510278218834159e+01
536 1 3.52231230538758950e+01
537 1 3.31894619542404357e+01
538 1 3.20074170594071248e+01
539 1 2.76401764719750780e+01
540 1 2.91903022503441711e+01
541 1 3.61857369985765018e+01
542 1 2.15331035449899524e+01
543 1 2.67465088045420742e+01
544 1 4.24699330531579662e+01
545 1 3.71268944543968260e+01
546 1 2.22622004300531664e+01
547 1 2.20672320615809312e+01
548 1 2.20724286395568932e+01
549 1 3.09447192922464964e+01
550 1 3.91409782211202142e+01
551 1 3.25692805594571269e+01
552 1 3.31150622421923160e+01
553 1 1.83157395439670161e+01
554 1 1.65480287245623572e+01
555 1 1.45424355977908579e+01
556 1 1.45488903543386829e+01
557 1 1.57579281493081460e+01
558 1 1.32727291779911631e+01
559 1 2.18678237759461389e+01
560 1 2.46876795277703067e+01
561 1 2.39354363949948592e+01
562 1 2.57281295447791010e+01
563 1 2.64025533640938299e+01
564 1 2.69660603148061391e+01
565 1 2.88194690971324583e+01
566 1 3.07023303224399413e+01
567 1 2.39968986164012961e+01
568 1 2.02760225004854036e+01
569 1 2.53982425937082787e+01
570 1 2.05966962564498779e+01
571 1 2.73799489981949229e+01
572 1 2.75775245193255714e+01
573 1 2.84420897976934270e+01
574 1 2.14243000735893467e+01
575 1 2.11032507523193544e+01
576 1 2.32897007658019746e+01
577 1 2.94183453733037403e+01
578 1 3.42032881790009640e+01
579 1 3.09091774185428463e+01
580 1 3.28856787530153980e+01
581 1 2.45382285132254907e+01
582 1 2.70882763896895717e+01
583 1 2.22395397001873079e+01
584 1 2.34237411936990227e+01
585 1 2.48864038149947859e+01
586 1 2.33697429181051675e+01
587 1 2.18574380019544208e+01
588 1 2.36035720200978751e+01
589 1 2.03203339769124653e+01
590 1 2.65442536938871001e+01
591 1 2.19310289976377604e+01
592 1 2.83465010825142691e+01
593 1 2.97842995508937989e+01
594 1 3.57916494074024314e+01
595 1 3.34210737268406177e+01
596 1 3.30151790261714524e+01
597 1 3.65453871196645537e+01
598 1 3.83885573276263585e+01
599 1 3.73219430177171034e+01
600 1 3.27205063915923233e+01
601 1 3.97774104821233152e+01
602 1 4.04609556502273122e+01
603 1 3.48683744761222130e+01
604 1 3.40920126976987632e+01
605 1 3.54161551901638276e+01
606 1 2.16675612121282839e+01
607 1 2.83707375241351798e+01
608 1 2.37731609808226914e+01
609 1 2.23340364067369102e+01
610 1 2.48048710615756605e+01
611 1 1.76464495547176092e+01
612 1 3.25725390724669523e+01
613 1 3.64441619668318069e+01
614 1 3.32428861991017541e+01
615 1 2.99046324645089712e+01
616 1 2.46869214526486154e+01
617 1 1.22211661241107077e+01
618 1 1.02659672810149925e+01
619 1 1.41639419477056627e+01
620 1 1.61651116965673083e+01
621 1 2.04438266327336962e+01
622 1 3.23909872879954719e+01
623 1 2.79668082937050926e+01
624 1 6.63810007775842870e+00
625 1 6.31064725379603342e+00
626 1 5.78314509538613297e+00
627 1 5.36907056216904000e+00
628 1 5.32736459431721343e+00
629 1 4.87548728311028068e+00
630 1 4.79979457620696337e+00
631 1 4.82218310339355938e+00
632 1 5.32258753863041001e+00
633 1 5.23336217915546520e+00
634 1 4.81961885967150572e+00
635 1 4.71786260034268512e+00
636 1 4.89549821820527864e+00
637 1 5.46451086870284009e+00
638 1 6.99228797703111216e+00
639 1 6.39239345642407919e+00
640 1 9.70380769980330626e+00
641 1 7.57826748310155729e+00
642 1 6.41045087431636240e+00
643 1 6.47572737084760153e+00
644 1 9.13547898338276276e+00
645 1 7.29890753886967136e+00
646 1 6.12139702955167930e+00
647 1 7.15251065587844614e+00
648 1 5.81311806229956929e+00
649 1 1.13858506835168107e+01
650 1 9.58539332119541854e+00
651 1 8.13005785336545017e+00
652 1 1.57386417778171186e+01
653 1 9.88765184661402330e+00
654 1 9.06797844794577834e+00
655 1 7.44704846438365120e+00
656 1 1.97561559410737289e+01
657 1 1.57286242343682012e+01
658 1 2.41052475353100029e+01
659 1 1.99886928720234245e+01
660 1 1.19610336959875809e+01
661 1 9.25272565935065039e+00
662 1 1.20073307050160150e+01
663 1 1.18740141752579476e+01
664 1 1.51013118435000528e+01
665 1 5.45258632162502899e+00
666 1 1.11983231867090698e+01
667 1 2.49642268156527329e+01
668 1 1.11462622144960530e+01
669 1 4.27558611634929804e+01
670 1 3.94886997923342520e+01
671 1 3.42869340278094015e+01
672 1 1.84908431259657711e+01
673 1 1.62453739875964693e+01
674 1 2.47138834533303502e+01
675 1 1.60107202482289033e+01
676 1 1.66559640941339318e+01
677 1 1.54760584179178196e+01
678 1 1.85444039702508157e+01
679 1 1.87955665974054327e+01
680 1 1.71423706191273624e+01
681 1 1.80114826053773420e+01
682 1 1.56869155852013602e+01
683 1 1.56138102296830006e+01
684 1 1.67346022819876978e+01
685 1 1.54641409798179836e+01
686 1 1.24518076989409625e+01
687 1 1.38267382002000154e+01
688 1 1.57777333023152231e+01
689 1 1.59509211858369859e+01
690 1 1.94365061179002012e+01
691 1 1.66118462612746782e+01
692 1 2.55301297450952802e+01
693 1 2.44174852329108845e+01
694 1 1.00629919279359736e+01
695 1 1.05203050649970216e+01
696 1 6.40585868582014140e+00
697 1 8.04667801669243588e+00
698 1 8.84183404857745003e+00
699 1 1.12821214311172788e+01
700 1 1.20167460139734246e+01
701 1 1.07033071179308905e+01
702 1 1.00976162075804101e+01
703 1 1.39907639608418002e+01
704 1 1.15261052245983091e+01
705 1 1.50728544542853591e+01
706 1 1.30547736105348005e+01
707 1 1.46165936669568257e+01
708 1 1.41095795625110814e+01
709 1 1.70598336635629408e+01
710 1 1.07904662473017492e+01
711 1 9.89123482810597565e+00
712 1 8.01314465022401023e+00
713 1 7.74549508959814847e+00
714 1 1.07410551324361894e+01
715 1 1.26014822484996483e+01
716 1 1.14731017419556363e+01
717 1 1.22630643050876547e+01
718 1 1.49505738438699627e+01
719 1 1.81255528752584532e+01
720 1 1.73994151620034323e+01
721 1 3.41426620361233759e+01
722 1 3.43449802305463692e+01
723 1 3.55433377282069713e+01
724 1 3.18930889862171298e+01
725 1 3.26945925928655967e+01
726 1 2.89302814217572575e+01
727 1 3.18974844355422427e+01
728 1 3.18994854101009189e+01
729 1 3.28624288965074740e+01
730 1 3.20055693212464192e+01
731 1 2.92524093875241142e+01
732 1 3.74748509322735188e+01
733 1 2.31590548755070138e+01
734 1 2.56055547177099214e+01
735 1 2.19948460033023210e+01
736 1 2.02280313075459510e+01
737 1 2.16361185221953214e+01
738 1 4.19814321231461349e+01
739 1 5.64755319327958816e+01
740 1 2.95046753800991404e+01
741 1 4.13598490486432055e+01
742 1 3.01528092814624316e+01
743 1 3.24085294389589151e+01
744 1 2.44433572459179871e+01
745 1 3.42311679349692639e+01
746 1 2.35480146182243750e+01
747 1 2.62731820277887707e+01
748 1 1.95075724173185527e+01
749 1 1.60260482721964692e+01
750 1 1.66446017053925530e+01
751 1 3.17984575932977052e+01
752 1 2.02100151130203756e+01
753 1 2.75889526850785849e+01
754 1 2.31418965269483259e+01
755 1 1.54603170417975644e+01
756 1 2.34122499987422081e+01
757 1 1.85965912991945714e+01
758 1 2.67622065018286435e+01
759 1 3.28540668534249178e+01
760 1 2.70580091126767996e+01
761 1 2.12099845281635737e+01
762 1 2.33714472343876913e+01
763 1 3.12349097638094868e+01
764 1 2.64200120225377688e+01
765 1 2.50946068001614293e+01
766 1 3.67331201595434038e+01
767 1 3.74051654684725605e+01
768 1 4.88714543916379185e+01
769 1 5.25865982251910467e+01
770 1 4.05908293442177026e+01
771 1 5.07175900017187047e+01
772 1 4.94789812383342706e+01
773 1 5.43129762316770623e+01
774 1 4.21681426108203397e+01
775 1 4.07768481965672578e+01
776 1 4.23217332094013656e+01
777 1 3.63900507449885779e+01
778 1 3.54202892673757717e+01
779 1 4.19802857676738270e+01
780 1 3.56636790701009261e+01
781 1 3.08038014462206320e+01
782 1 3.38408951247368677e+01
783 1 4.04603965496337779e+01
784 1 3.42349095597218920e+01
785 1 2.76483348329192395e+01
786 1 3.87492532501623970e+01
787 1 4.95834208705416373e+01
788 1 4.49558968087611106e+01
789 1 4.24017252950112962e+01
790 1 5.16877135350218069e+01
791 1 5.04254528171156196e+01
792 1 5.32133949418970147e+01
793 1 4.64952962845294167e+01
794 1 5.47385002635241591e+01
795 1 4.27075416188090244e+01
796 1 4.23573813705110496e+01
797 1 3.88373346537011059e+01
798 1 2.88107638041423897e+01
799 1 2.79107523076110482e+01
800 1 4.02460981745925608e+01
801 1 3.88941636351512372e+01
802 1 4.19042632057705475e+01
803 1 3.60599363849591654e+01
804 1 3.74338948417672768e+01
805 1 3.88869057988489004e+01
806 1 3.51137270283793796e+01
807 1 3.45204329398689254e+01
808 1 3.27634134442032945e+01
809 1 3.35038415420896030e+01
810 1 3.21723653888157202e+01
811 1 2.92892029307340103e+01
812 1 4.14221380068354534e+01
813 1 3.92848442111356135e+01
814 1 3.56352291430127650e+01
815 1 3.61388114564722898e+01
816 1 3.34481218611451396e+01
817 1 3.36351892018009195e+01
818 1 3.56877944153628448e+01
819 1 4.87966338574287377e+01
820 1 3.82960637259194883e+01
821 1 3.60939718113697765e+01
822 1 4.13533602311190691e+01
823 1 4.94868268769888289e+01
824 1 4.87108505790178157e+01
825 1 4.13975894434163862e+01
826 1 3.67090523910642830e+01
827 1 4.19563274736942589e+01
828 1 3.10959453151720133e+01
829 1 3.76959366733743337e+01
830 1 4.15735895163010625e+01
831 1 3.34265871029176154e+01
832 1 3.05346743369803377e+01
833 1 2.81645891398631569e+01
834 1 3.26465155461574170e+01
835 1 3.28461417461681080e+01
836 1 2.75444675911432384e+01
837 1 2.64218687703442043e+01
838 1 2.84888171317147787e+01
839 1 3.87004040250525421e+01
840 1 3.53913651120217665e+01
841 1 4.49249509167572683e+01
842 1 3.67753044165152474e+01
843 1 2.67616341817460608e+01
844 1 2.76359678124417307e+01
845 1 2.02430279272426681e+01
846 1 1.82960268544574447e+01
847 1 1.70396296060034480e+01
848 1 2.84071987143503151e+01
849 1 2.28216467611182097e+01
850 1 2.03772950382417193e+01
851 1 1.78427440017139780e+01
852 1 1.41596915288031369e+01
853 1 1.64487817575544817e+01
854 1 1.47571024613309447e+01
855 1 1.15292581117533537e+01
856 1 1.28400022576504842e+01
857 1 1.22152947128164353e+01
858 1 1.90174265634317408e+01
859 1 1.35028210933848154e+01
860 1 1.47221481318868133e+01
861 1 2.62358323360957684e+01
862 1 1.10831343191594556e+01
863 1 2.05856621063071223e+01
864 1 1.47745964490501684e+01
865 1 2.14602364958780711e+01
866 1 3.00112193581009343e+01
867 1 2.51474660769525613e+01
868 1 2.05555447926993438e+01
869 1 2.88863938474439301e+01
870 1 3.91346582658352276e+01
871 1 3.93690160869471697e+01
872 1 3.62825031097111008e+01
873 1 3.42732821691318748e+01
874 1 3.38481899806500977e+01
875 1 3.11097387889452150e+01
876 1 2.42808260526984405e+01
877 1 1.52077436110975626e+01
878 1 2.20003052251316262e+01
879 1 1.47626774832274261e+01
880 1 1.22923743462813437e+01
881 1 2.36095745342288943e+01
882 1 2.12491001478404193e+01
883 1 2.54855780876386753e+01
884 1 3.46913096179401848e+01
885 1 4.33211010523885349e+01
886 1 4.46167570816810937e+01
887 1 5.77253731663123446e+01
888 1 3.30556489037213979e+01
889 1 2.51071836501084533e+01
890 1 2.09496242782256772e+01
891 1 1.55016528753234990e+01
892 1 3.15803350344424416e+01
893 1 2.85789879689901305e+01
894 1 3.17212569759024667e+01
895 1 1.86191370184035137e+01
896 1 2.36759601352946270e+01
897 1 3.14677162387908602e+01
898 1 2.82753333997301723e+01
899 1 2.89362543455044161e+01
900 1 2.82535926289186001e+01
901 1 3.25207356139482542e+01
902 1 3.26153538887150560e+01
903 1 2.92524295227420374e+01
904 1 3.32212230317822304e+01
905 1 3.32482538328236146e+01
906 1 3.39678879814100441e+01
907 1 3.32195226605977680e+01
908 1 3.07539871408118159e+01
909 1 3.33016804583416999e+01
910 1 2.78004044699796573e+01
911 1 3.29648843541364513e+01
912 1 2.95016471491687895e+01
913 1 2.42640830000786174e+01
914 1 2.61950241507930279e+01
915 1 1.90265371886774730e+01
916 1 2.82748078371566969e+01
917 1 1.51525800374584154e+01
918 1 2.17481395634258519e+01
919 1 2.51696019640565503e+01
920 1 4.71038488119356629e+01
921 1 2.29992264439830727e+01
922 1 2.48563920911827623e+01
923 1 2.73745984202223873e+01
924 1 2.01709421283411636e+01
925 1 2.11226383134467284e+01
926 1 2.31624351611108743e+01
927 1 1.55178141196797661e+01
928 1 1.43762370271095481e+01
929 1 1.35106341866865787e+01
930 1 2.38057473143187721e+01
931 1 2.56031542761291426e+01
932 1 1.96224838611619461e+01
933 1 1.77346021863027090e+01
934 1 1.93224968034966977e+01
935 1 2.21577992804399955e+01
936 1 1.97024031940458393e+01
937 1 1.75181351131302954e+01
938 1 1.75238428154047519e+01
939 1 9.28684253329835840e+00
940 1 8.44434991088326825e+00
941 1 7.34431654559471969e+00
942 1 2.86543475001558328e+01
943 1 2.86391455994665840e+01
944 1 6.22254170270412121e+00
945 1 2.34208054378026489e+01
946 1 2.77091227076135418e+01
947 1 3.45922205785096040e+01
948 1 3.86248958854145386e+01
949 1 3.92869224029964670e+01
950 1 3.92783149614339351e+01
951 1 3.92067817878578779e+01
952 1 2.45975101638940075e+01
953 1 2.73079424182598842e+01
954 1 3.08459346932530885e+01
955 1 2.79431146893317433e+01
956 1 2.31997722566398608e+01
957 1 2.20404244826393523e+01
958 1 2.20438467809655840e+01
959 1 2.85393315502747527e+01
960 1 2.39553827393802692e+01
961 1 2.15973431212924041e+01
962 1 1.11393712375827896e+01
963 1 1.76267101954470391e+01
964 1 1.88974421255593015e+01
965 1 1.34572658264642637e+01
966 1 1.70642757772075342e+01
967 1 3.62505824218841823e+01
968 1 1.46103813046762205e+01
969 1 2.45241046188463372e+01
970 1 2.61321325821988530e+01
971 1 1.88375888483640033e+01
972 1 1.65511881974942057e+01
973 1 3.11712452915743796e+01
974 1 3.10202610902420624e+01
975 1 3.11411183244950287e+01
976 1 3.10614125711131024e+01
977 1 3.11718264082505883e+01
978 1 3.15657316529499887e+01
979 1 3.23301706446560146e+01
980 1 2.01590927866836793e+01
981 1 1.37553559801705845e+01
982 1 3.82907684621697939e+01
983 1 4.69091015995393974e+01
984 1 1.67606610169139323e+01
985 1 1.72977497755288141e+01
986 1 1.85269707858779569e+01
987 1 2.65855818573377185e+01
988 1 2.64911622561636015e+01
989 1 2.59553265580678278e+01
990 1 2.63185109104991248e+01
991 1 2.91679255277572302e+01
992 1 2.60066380524985199e+01
993 1 4.01568279736845426e+01
994 1 6.43785592892864145e+01
995 1 6.99301136524706664e+01
996 1 -1.69830398220896939e+00
997 1 1.68804982822662701e+01
998 1 1.98258529740573479e+01
999 1 2.18094427218932303e+01
1000 1 1.62096979731040527e+01
1001 1 1.20569378512768015e+01
1002 1 9.28164109778917990e+00
1003 1 1.43086757412636576e+01
1004 1 2.79794433644228313e+01
1005 1 2.23679401383711109e+01
1006 1 1.05252768674301773e+01
1007 1 8.68831715945974992e+00
1008 1 9.80352768575584577e+00
1009 1 1.25626645814828759e+01
1010 1 1.52077072088778316e+01
1011 1 1.75252854699211227e+01
1012 1 1.84303172695414119e+01
1013 1 1.84169358411895949e+01
1014 1 2.02256978882511760e+01
1015 1 1.91936680501674743e+01
1016 1 3.86577112056058212e+01
1017 1 4.22062859723011314e+01
1018 1 3.27903760959109007e+01
1019 1 3.15457055379370779e+01
1020 1 3.26747395847757574e+01
1021 1 2.72813272945475909e+01
1022 1 1.78174779247879336e+01
1023 1 1.77723193452605166e+01
1024 1 1.53705749904408790e+01
1025 1 2.55090558161385950e+01
1026 1 4.97433765087030650e+01
1027 1 4.14478983692280636e+01
1028 1 2.08614076523601355e+01
1029 1 2.07081217227977987e+01
1030 1 3.11105842449402772e+01
1031 1 2.88471329210201830e+01
1032 1 9.60387859716756509e+00
1033 1 2.91542567411014844e+01
1034 1 2.68696193262837539e+01
1035 1 5.10098827010955969e+00
1036 1 1.20449414781186608e+01
1037 1 1.38565934800124708e+01
1038 1 1.20943695448790915e+01
1039 1 1.32990826058010612e+01
1040 1 1.78485460099239823e+01
1041 1 3.03710780104870608e+01
1042 1 3.18248373470009049e+01
1043 1 2.57423032963578216e+01
1044 1 9.18280366158503902e+00
1045 1 2.01460888565628728e+01
1046 1 1.96400880376591758e+01
1047 1 2.07931281585491305e+01
1048 1 1.81534822865021361e+01
1049 1 1.97073920847320174e+01
1050 1 3.12515343967686725e+01
1051 1 3.02006255089699707e+01
1052 1 6.31998804766243865e+01
1053 1 3.30367222521408976e+01
1054 1 1.38945620597355504e+01
1055 1 3.25357080503528664e+01
1056 1 2.51238073058752676e+01
1057 1 9.60124734594191587e+00
1058 1 3.43802320962607695e+01
1059 1 3.14882867926037342e+01
1060 1 2.80902209865771404e+01
1061 1 2.74674227659718575e+01
1062 1 1.86508167467245585e+01
1063 1 1.82725026872768872e+01
1064 1 1.83678542122295880e+01
1065 1 1.28401825462174468e+01
1066 1 2.01194695930403817e+01
1067 1 1.26355889737895950e+01
1068 1 1.40652845364550974e+01
1069 1 1.43235594082843622e+01
1070 1 1.48205399504273796e+01
1071 1 1.51639187745773363e+01
1072 1 1.53779693326687976e+01
1073 1 7.72694360981587369e+00
1074 1 1.76667869535854898e+01
1075 1 1.54150741260358366e+01
1076 1 7.62928377494340815e+00
1077 1 2.65796863192353996e+01
1078 1 1.75968108291463281e+01
1079 1 1.93674846576657842e+01
1080 1 2.64840292448584975e+01
1081 1 2.59918851487017051e+01
1082 1 3.65474023699539714e+01
1083 1 3.16664961654252153e+01
1084 1 3.25945604279647796e+01
1085 1 2.97144856416178271e+01
1086 1 3.02614331553118845e+01
1087 1 3.11491174274837057e+01
1088 1 3.11570184974765247e+01
1089 1 2.61399257159061840e+01
1090 1 2.04520005551714092e+01
1091 1 1.25110766765195329e+01
1092 1 1.20495054614366115e+01
1093 1 1.34969516909491780e+01
1094 1 1.68624189233350776e+01
1095 1 1.64301787549872884e+01
1096 1 1.93819643038618246e+01
1097 1 3.30018640590785708e+01
1098 1 3.11462044147783921e+01
1099 1 3.45681900009264496e+01
1100 1 3.13727453351024899e+01
1101 1 1.30587902752459541e+01
1102 1 1.55520614431666537e+01
1103 1 1.51503766115325238e+01
1104 1 2.32333437165282035e+01
1105 1 2.76285009456323500e+01
1106 1 3.06076914974875685e+01
1107 1 2.78498517381365929e+01
1108 1 2.68666821898975776e+01
1109 1 2.68766727191543922e+01
1110 1 2.60394554726961331e+01
1111 1 2.63283068179132975e+01
1112 1 2.61186159607669737e+01
1113 1 2.39707727244292421e+01
1114 1 2.27759847393502248e+01
1115 1 1.95675270496249816e+01
1116 1 1.92039580600748252e+01
1117 1 2.03233593637606660e+01
1118 1 2.03432428639208922e+01
1119 1 6.88723116821261385e+01
1120 1 5.77430455093957775e+01
1121 1 2.24187437416795774e+01
1122 1 1.33899302695207663e+01
1123 1 2.88851959585825746e+01
1124 1 2.77132905219693697e+01
1125 1 2.24331396960637441e+01
1126 1 1.93391652547686625e+01
1127 1 2.31090549800167118e+01
1128 1 1.62461700727943601e+01
1129 1 1.82828990185760212e+01
1130 1 1.54489797062907765e+01
1131 1 1.75522987042747474e+01
1132 1 2.22888828100946625e+01
1133 1 2.90005273315247862e+01
1134 1 2.85411824362303115e+01
1135 1 2.78054511929555019e+01
1136 1 2.18415746022749921e+01
1137 1 2.85684968256509819e+01
1138 1 3.02265921189282167e+01
1139 1 3.07524554600823343e+01
1140 1 2.88192292772876968e+01
1141 1 3.12243695902592542e+01
1142 1 1.82930599202115687e+01
1143 1 2.10219696940538583e+01
1144 1 1.54500562999968984e+01
1145 1 2.09934836474659150e+01
1146 1 1.65205001525547317e+01
1147 1 1.75717017498330925e+01
1148 1 1.75671582543460367e+01
1149 1 1.82368313680900620e+01
1150 1 1.75925703777925371e+01
1151 1 1.84753802583802376e+01
1152 1 1.80816740634059343e+01
1153 1 1.91883294710336223e+01
1154 1 1.95316072467679795e+01
1155 1 1.95863383896063077e+01
1156 1 1.96350121712448917e+01
1157 1 1.97172375952315804e+01
1158 1 2.36000682835202511e+01
1159 1 2.28748378784118742e+01
1160 1 2.52600900183644441e+01
1161 1 2.17371527762817358e+01
1162 1 2.31502485194930436e+01
1163 1 2.04113978405333825e+01
1164 1 2.39737616896912549e+01
1165 1 2.16759620382419413e+01
1166 1 2.02345024958344943e+01
1167 1 2.02720224290586337e+01
1168 1 2.10048111661325940e+01
1169 1 2.07724670434236849e+01
1170 1 2.11010429052898232e+01
1171 1 1.95088963719701312e+01
1172 1 1.73783221041425158e+01
1173 1 1.85688262016053400e+01
1174 1 2.09321180883167699e+01
1175 1 1.47860262478053635e+01
1176 1 1.18849591617507269e+01
1177 1 1.15974203265593818e+01
1178 1 1.22249538802159741e+01
1179 1 1.80256426129894933e+01
1180 1 2.06255360981818647e+01
1181 1 1.84387356313556374e+01
1182 1 2.06107443671059372e+01
1183 1 3.88088837212358655e+01
1184 1 3.63922708383393427e+01
1185 1 3.24778386223822437e+01
1186 1 3.53820832911303995e+01
1187 1 3.16921874400390386e+01
1188 1 2.13734356305146029e+01
1189 1 2.87148118901463469e+01
1190 1 1.84817715967934149e+01
1191 1 1.98658517390802807e+01
1192 1 1.97060918445647921e+01
1193 1 1.25248116585269464e+01
1194 1 1.30472424563848399e+01
1195 1 1.42836698335855683e+01
1196 1 1.22481872705646850e+01
1197 1 1.16918490875091248e+01
1198 1 1.32175173843311509e+01
1199 1 1.12706504189097299e+01
1200 1 1.40604399077690783e+01
1201 1 1.59159010414531643e+01
1202 1 1.36829782932925283e+01
1203 1 1.26739585163515436e+01
1204 1 9.13467283507687711e+00
1205 1 9.29064045518733650e+00
1206 1 1.10998473744198680e+01
1207 1 1.04090439975808149e+01
1208 1 1.49120100714219799e+01
1209 1 1.80269774948953128e+01
1210 1 1.52954579080164432e+01
1211 1 1.69276165539501946e+01
1212 1 1.88132428946556693e+01
1213 1 1.62638998210445322e+01
1214 1 1.99012089575738571e+01
1215 1 2.14065721804113309e+01
1216 1 3.07303697430071665e+01
1217 1 3.17304319412350750e+01
1218 1 1.43328021947038948e+01
1219 1 1.63633984022182339e+01
1220 1 1.31213397941673584e+01
1221 1 1.42927232027465987e+01
1222 1 1.60765453652238506e+01
1223 1 1.50607195735824710e+01
1224 1 1.43674982533029905e+01
1225 1 1.61654974007218470e+01
1226 1 1.52321681356536178e+01
1227 1 1.85958771041248845e+01
1228 1 1.69335144354626834e+01
1229 1 1.16365275093926890e+01
1230 1 1.23606505911260527e+01
1231 1 2.69997310382117810e+01
1232 1 2.65693606063217018e+01
1233 1 2.74041793255524908e+01
1234 1 1.17574611510254030e+01
1235 1 1.48967477658434024e+01
1236 1 1.17847065746316240e+01
1237 1 1.45581568039252662e+01
1238 1 2.27036105062232139e+01
1239 1 2.73719435045227684e+01
1240 1 2.17685478310963454e+01
1241 1 3.18145906374076297e+01
1242 1 2.94968460393431009e+01
1243 1 3.09215441458402438e+01
1244 1 3.22842550552978906e+01
1245 1 2.95266868068606883e+01
1246 1 3.06439703250452027e+01
1247 1 3.04185530836302114e+01
1248 1 3.23527423691034528e+01
1249 1 3.15017934663839583e+01
1250 1 2.74803109562785153e+01
1251 1 2.78388067359136997e+01
1252 1 2.90382426106288456e+01
1253 1 2.70900110271561445e+01
1254 1 2.42384968718373770e+01
1255 1 2.57473329881461375e+01
1256 1 2.50479422149713216e+01
1257 1 2.64329944123446836e+01
1258 1 2.52768652108337690e+01
1259 1 2.50501699125186121e+01
1260 1 2.41844280284336968e+01
1261 1 2.43381495749301102e+01
1262 1 2.47413840594599357e+01
1263 1 2.60277523199877514e+01
1264 1 2.56985147006243508e+01
1265 1 3.06108624975600492e+01
1266 1 3.02936598049651558e+01
1267 1 3.08057490616153267e+01
1268 1 2.82205991046734042e+01
1269 1 2.49369490896757569e+01
1270 1 2.47284890982746575e+01
1271 1 2.67505470485153971e+01
1272 1 2.35122748228264733e+01
1273 1 2.89276705739469939e+01
1274 1 3.01447837588147252e+01
1275 1 2.57399602041322488e+01
1276 1 2.08566051042057978e+01
1277 1 1.91935574135171372e+01
1278 1 2.00746326618148920e+01
1279 1 2.01181744411962846e+01
1280 1 2.16258427696680222e+01
1281 1 1.66092811085505332e+01
1282 1 1.91775661799901940e+01
1283 1 1.68466940074726423e+01
1284 1 1.55198353219175047e+01
1285 1 1.67058193773116841e+01
1286 1 1.72471390527505406e+01
1287 1 1.48450584824838554e+01
1288 1 1.45669943055837923e+01
1289 1 2.05298972108305158e+01
1290 1 1.85162005613775520e+01
1291 1 2.22118656678056041e+01
1292 1 2.03787536080351259e+01
1293 1 2.30175406694157303e+01
1294 1 2.24867581142078592e+01
1295 1 1.66647361282249626e+01
1296 1 1.79200221417353482e+01
1297 1 1.82011635286248605e+01
1298 1 1.81975470062894722e+01
1299 1 1.73943449305080264e+01
1300 1 2.29806076299953297e+01
1301 1 2.59719271625436470e+01
1302 1 2.44112015389718202e+01
1303 1 1.09784924981488370e+01
1304 1 1.22770414493908948e+01
1305 1 1.44338859201318108e+01
1306 1 2.16749856805807930e+01
1307 1 1.57077249745815646e+01
1308 1 1.60154855517155141e+01
1309 1 2.08845192288275001e+01
1310 1 1.53758575133184774e+01
1311 1 1.88211233631252490e+01
1312 1 2.58189192515704526e+01
1313 1 2.53623488290916619e+01
1314 1 3.47260777829977201e+01
1315 1 2.45757444572974535e+01
1316 1 2.46904697382175264e+01
1317 1 2.76523682261658692e+01
1318 1 4.07627898652533531e+01
1319 1 2.30115056327047256e+01
1320 1 3.07675498661071956e+01
1321 1 1.77996564914667097e+01
1322 1 1.84126978758487567e+01
1323 1 1.88931990503912353e+01
1324 1 2.44185236805064712e+01
1325 1 1.81230104286123002e+01
1326 1 2.47912562104637466e+01
1327 1 2.93107837671564120e+01
1328 1 2.98406600135646727e+01
1329 1 3.36681547694164465e+01
1330 1 3.59369591036183991e+01
1331 1 3.16921161473404887e+01
1332 1 3.04533796389147646e+01
1333 1 2.97200098733893974e+01
1334 1 2.86161568904211094e+01
1335 1 2.91105265336500203e+01
1336 1 3.07252361125421025e+01
1337 1 3.14311433322018985e+01
1338 1 2.98568238367584122e+01
1339 1 3.36416916635751519e+01
1340 1 2.97089449516319988e+01
1341 1 3.09080643571051752e+01
1342 1 3.53409869793268356e+01
1343 1 3.28965035189748392e+01
1344 1 3.10280779876649078e+01
1345 1 2.91586033313756623e+01
1346 1 3.16901395268494923e+01
1347 1 2.78787050779465417e+01
1348 1 3.02029601587676879e+01
1349 1 2.94049106449381874e+01
1350 1 2.82672661844933586e+01
1351 1 2.88388018447672856e+01
1352 1 3.24180033118778752e+01
1353 1 3.23996015014983669e+01
1354 1 3.44921305064598229e+01
1355 1 3.44373141200421884e+01
1356 1 3.72014924533037359e+01
1357 1 3.44124372571014945e+01
1358 1 2.73465037860823870e+01
1359 1 3.06505940156095384e+01
1360 1 2.74285519590729479e+01
1361 1 2.96323163738260575e+01
1362 1 3.95489907945344044e+01
1363 1 3.50904912967988238e+01
1364 1 3.36564646111350712e+01
1365 1 2.76056010386536208e+01
1366 1 2.51264096457704724e+01
1367 1 3.91489720800813643e+01
1368 1 4.18533436407847859e+01
1369 1 3.76156300796209777e+01
1370 1 4.02974224612308376e+01
1371 1 3.33347875674750895e+01
1372 1 3.99710265521866503e+01
1373 1 4.19719353194541114e+01
1374 1 2.68652176341825637e+01
1375 1 3.03048407556138457e+01
1376 1 2.31928720748812154e+01
1377 1 1.73515406990157857e+01
1378 1 2.77693006248731145e+01
1379 1 2.56095478956551759e+01
1380 1 2.15717401663309900e+01
1381 1 2.09124948578245871e+01
1382 1 3.55226835688586746e+01
1383 1 2.40081178611298220e+01
1384 1 2.57433507718208681e+01
1385 1 2.73097444072450806e+01
1386 1 3.06822330082269694e+01
1387 1 3.67501072414670631e+01
1388 1 2.53852872366095852e+01
1389 1 3.10347251307336371e+01
1390 1 1.03230781728492929e+01
1391 1 1.81835869020127880e+01
1392 1 1.05569581454101016e+01
1393 1 1.73234821014515532e+01
1394 1 1.66041608248521619e+01
1395 1 1.75720682983493361e+01
1396 1 1.45177606335460077e+01
1397 1 1.46084443834637039e+01
1398 1 1.62767827450593394e+01
1399 1 1.66256269087631772e+01
1400 1 1.53135659274521529e+01
1401 1 1.48168687415540923e+01
1402 1 1.56740004544708249e+01
1403 1 1.38070307811846185e+01
1404 1 1.44343350986539782e+01
1405 1 1.77516096746778871e+01
1406 1 1.79916467664470154e+01
1407 1 1.30919840222300508e+01
1408 1 1.32290513449614817e+01
1409 1 1.44299909564855717e+01
1410 1 1.41446664325780844e+01
1411 1 2.21898047543487849e+01
1412 1 2.39341326929750942e+01
1413 1 2.18797802326292299e+01
1414 1 2.33150898238818343e+01
1415 1 2.36545574202211704e+01
1416 1 2.08165463713138656e+01
1417 1 2.40561865408973858e+01
1418 1 2.31483226164881586e+01
1419 1 2.46885748933027038e+01
1420 1 2.60264795794403305e+01
1421 1 2.48493191089546706e+01
1422 1 2.51192561523547688e+01
1423 1 2.57382043686775930e+01
1424 1 2.49608708393745786e+01
1425 1 2.78689666970897463e+01
1426 1 2.69626715094538412e+01
1427 1 2.75669949657849607e+01
1428 1 2.70327106228806358e+01
1429 1 2.98314214552518848e+01
1430 1 2.75556871909900352e+01
1431 1 2.77157999535440531e+01
1432 1 2.56724091681803763e+01
1433 1 2.61678428008965760e+01
1434 1 1.87269622711936812e+01
1435 1 2.02437398724737712e+01
1436 1 1.97540814152170618e+01
1437 1 2.23809797249892526e+01
1438 1 3.10385250547049232e+01
1439 1 2.53621500961218302e+01
1440 1 3.16110417874912422e+01
1441 1 3.04077126785159955e+01
1442 1 2.89895747028762862e+01
1443 1 2.75156958026668796e+01
1444 1 2.28320314294121722e+01
1445 1 2.97019628209831623e+01
1446 1 2.16677944123326256e+01
1447 1 2.55532910983328883e+01
1448 1 2.20082120384132516e+01
1449 1 2.29435505645124600e+01
1450 1 2.41452835197847584e+01
1451 1 2.27390432408993988e+01
1452 1 2.84315939944273808e+01
1453 1 2.73152771900953724e+01
1454 1 3.15111736388917159e+01
1455 1 2.96047944984875855e+01
1456 1 2.94561701094899711e+01
1457 1 3.22064750450792587e+01
1458 1 3.30923764780986502e+01
1459 1 2.37802574553645378e+01
1460 1 2.37959998862433331e+01
1461 1 2.44362021742876045e+01
1462 1 2.58815606403822649e+01
1463 1 2.76310354004713723e+01
1464 1 2.62763118266121580e+01
1465 1 2.56927855850147466e+01
1466 1 2.45344137101847117e+01
1467 1 2.37023219316907188e+01
1468 1 2.05443263956107529e+01
1469 1 2.24867149422886570e+01
1470 1 2.90053508990826501e+01
1471 1 2.57361155726965656e+01
1472 1 2.46056820909317757e+01
1473 1 3.01244045757437924e+01
1474 1 2.99610059452911024e+01
1475 1 3.25309848001112698e+01
1476 1 3.21368816356501483e+01
1477 1 3.45432596355117738e+01
1478 1 3.21028623517033651e+01
1479 1 3.34818188731968718e+01
1480 1 3.49398103839158054e+01
1481 1 3.33902507473466201e+01
1482 1 3.44370369162826790e+01
1483 1 3.30601616058591077e+01
1484 1 3.84911109599438390e+01
1485 1 3.59488213349953938e+01
1486 1 3.47320322155909409e+01
1487 1 3.67756129107844529e+01
1488 1 3.58742000594293984e+01
1489 1 3.77166148363198914e+01
1490 1 3.48527781311307123e+01
1491 1 3.93100770044875887e+01
1492 1 3.93585701720736552e+01
1493 1 3.86422183770904937e+01
1494 1 3.90647254584129087e+01
1495 1 3.96270102585964992e+01
1496 1 4.04438753968603208e+01
1497 1 3.71754422595528737e+01
1498 1 3.23303260423125067e+01
1499 1 3.59578217968072948e+01
1500 1 3.85577799894229543e+01
1501 1 3.37869922114845451e+01
1502 1 2.73025082342200029e+01
1503 1 2.53966632698318975e+01
1504 1 3.24303977965101140e+01
1505 1 3.23239428951810552e+01
1506 1 2.33059728343276653e+01
1507 1 2.23899393515192529e+01
1508 1 2.23282650203349249e+01
1509 1 2.63939928859604755e+01
1510 1 2.52474297337787128e+01
1511 1 2.35923011817326298e+01
1512 1 2.27599419102475231e+01
1513 1 2.29194689072873743e+01
1514 1 2.16416941392373552e+01
1515 1 2.19652833179003828e+01
1516 1 2.52209513353082500e+01
1517 1 2.10478817120028694e+01
1518 1 2.31573322172568332e+01
1519 1 2.16641465615285966e+01
1520 1 1.55722538111469486e+01
1521 1 2.91268239754679286e+01
1522 1 3.02909536346940520e+01
1523 1 3.58711766476315930e+01
1524 1 3.73149973930799135e+01
1525 1 3.58799600867366664e+01
1526 1 3.04601525433441900e+01
1527 1 3.30537993297981885e+01
1528 1 3.53015856339798901e+01
1529 1 3.33442410153144309e+01
1530 1 2.98882753442358542e+01
1531 1 2.79455283288613678e+01
1532 1 3.10898277477075275e+01
1533 1 3.12163865925041435e+01
1534 1 2.15901318293714155e+01
1535 1 2.52596453334730278e+01
1536 1 1.12393828988752524e+01
1537 1 1.40824602624183584e+01
1538 1 1.00144272308672928e+01
1539 1 1.06376986620919745e+01
1540 1 1.35254943807936581e+01
1541 1 1.57692480615101491e+01
1542 1 1.29717027866396251e+01
1543 1 1.84911550377777019e+01
1544 1 1.58144167950759407e+01
1545 1 1.46159662047280854e+01
1546 1 2.16934486670830395e+01
1547 1 2.31431773822474476e+01
1548 1 1.75699281940851222e+01
1549 1 1.84925737949477309e+01
1550 1 3.48204890337943738e+01
1551 1 3.53831960757348867e+01
1552 1 3.12861990041357352e+01
1553 1 3.32322364887898445e+01
1554 1 2.71723338411795510e+01
1555 1 3.02923843770230476e+01
1556 1 5.18156055506616564e+00
1557 1 4.90558442560425156e+00
1558 1 5.11320999607250126e+00
1559 1 8.39667992554171327e+00
1560 1 9.26903650080274844e+00
1561 1 7.02940114509636071e+00
1562 1 1.20096935648020793e+01
1563 1 1.24811727380629609e+01
1564 1 1.16512891886560084e+01
1565 1 1.57630143859820819e+01
1566 1 1.92733016361315066e+01
1567 1 1.50579688053435046e+01
1568 1 9.84439517471161807e+00
1569 1 2.51948327885290553e+01
1570 1 3.49074944163915077e+01
1571 1 3.99983859272501618e+01
1572 1 4.15692015768381182e+01
1573 1 3.34249258173161792e+01
1574 1 3.91395525206127175e+01
1575 1 3.57247568652500718e+01
1576 1 1.57410859022210730e+01
1577 1 2.25395891932935015e+01
1578 1 2.61228242229420289e+01
1579 1 2.20798770988803277e+01
1580 1 2.48720602828224457e+01
1581 1 1.93869348905974945e+01
1582 1 1.83996119049510938e+01
1583 1 2.24547034710990019e+01
1584 1 1.74672408452744143e+01
1585 1 1.68612513411693925e+01
1586 1 1.48658623930956377e+01
1587 1 1.68334949262271287e+01
1588 1 1.56114851592521990e+01
1589 1 1.66303599618246132e+01
1590 1 1.58876954038556288e+01
1591 1 1.61048080720090532e+01
1592 1 1.86802911328497281e+01
1593 1 1.95587515237482634e+01
1594 1 1.90443816346222086e+01
1595 1 1.93146701707356456e+01
1596 1 1.89115519236392053e+01
1597 1 1.99246595930497037e+01
1598 1 2.00002791400020214e+01
1599 1 1.79292552814038011e+01
1600 1 1.61890350011991870e+01
1601 1 1.67242848831441826e+01
1602 1 1.55536821707731256e+01
1603 1 1.65226852398006905e+01
1604 1 1.84397253053391168e+01
1605 1 1.69285560831519923e+01
1606 1 1.58063325655206768e+01
1607 1 1.53062180869053908e+01
1608 1 1.45438048844518022e+01
1609 1 1.57048077765584022e+01
1610 1 1.44940054323807885e+01
1611 1 1.42514544135658117e+01
1612 1 1.39188542987297108e+01
1613 1 1.55546706621611133e+01
1614 1 1.49068961970104965e+01
1615 1 2.07040666585259103e+01
1616 1 1.70806175450690887e+01
1617 1 1.92967935498821106e+01
1618 1 1.65350194492749338e+01
1619 1 1.81627898953022395e+01
1620 1 2.48479164780665300e+01
1621 1 2.74366917623032691e+01
1622 1 2.33875618039306055e+01
1623 1 2.26705435261782924e+01
1624 1 2.11692647566716623e+01
1625 1 2.72630203654261258e+01
1626 1 2.09576778257974290e+01
1627 1 1.92987213520425485e+01
1628 1 2.06491668945191087e+01
1629 1 2.29281292919784363e+01
1630 1 8.34688300296664387e+00
1631 1 1.00859679643254250e+01
1632 1 1.31897630030637458e+01
1633 1 7.95986348602593896e+00
1634 1 8.03857722262612739e+00
1635 1 9.79146256424280814e+00
1636 1 1.47848883871190058e+01
1637 1 1.26328335138589392e+01
1638 1 1.37042561292870868e+01
1639 1 1.30417562137390721e+01
1640 1 1.45854301591744111e+01
1641 1 1.65867865721641543e+01
1642 1 1.33847795706650015e+01
1643 1 1.56774881932163606e+01
1644 1 1.23747863132803264e+01
1645 1 1.14227828418133406e+01
1646 1 1.28983347677204065e+01
1647 1 1.44464168740846368e+01
1648 1 1.50938643609256502e+01
1649 1 1.54579022737404728e+01
1650 1 1.84707835724456082e+01
1651 1 1.74843297183149957e+01
1652 1 3.43438422428502577e+01
1653 1 3.21424883487938757e+01
1654 1 3.56549972692346913e+01
1655 1 3.15616705358964111e+01
1656 1 3.33324790707447889e+01
1657 1 3.41925406242872398e+01
1658 1 3.53658675867134349e+01
1659 1 3.18470409305669122e+01
1660 1 2.98799800083431357e+01
1661 1 2.86945637669328342e+01
1662 1 3.10177552280318558e+01
1663 1 3.29159011162544459e+01
1664 1 3.15950693584473754e+01
1665 1 3.18649587288539671e+01
1666 1 3.20495720678561824e+01
1667 1 3.18827433598409584e+01
1668 1 4.34182263485708262e+01
1669 1 3.57556413476469004e+01
1670 1 3.29109763770813117e+01
1671 1 1.99439890647972540e+01
1672 1 3.15445323144636163e+01
1673 1 2.41232854769125815e+01
1674 1 2.54492339839445343e+01
1675 1 2.23997528981736167e+01
1676 1 2.09712532245494856e+01
1677 1 2.35674310634620348e+01
1678 1 2.13316940165551721e+01
1679 1 2.47332448413447850e+01
1680 1 2.16942235467827800e+01
1681 1 1.96946467142636976e+01
1682 1 5.03990401045800098e+01
1683 1 3.51149862178548346e+01
1684 1 4.12696297462244175e+01
1685 1 5.25155340561375610e+01
1686 1 5.75635417489719003e+01
1687 1 4.95241778821719905e+01
1688 1 4.89625698875747801e+01
1689 1 3.66016490758801822e+01
1690 1 4.27459328518622499e+01
1691 1 3.65449851529513481e+01
1692 1 3.20551921563708930e+01
1693 1 3.22020682650153205e+01
1694 1 1.98865276075785467e+01
1695 1 2.85754522194754976e+01
1696 1 3.95169508781334571e+01
1697 1 3.21676590608788402e+01
1698 1 3.26922639391612435e+01
1699 1 2.71838957160830752e+01
1700 1 2.45325409526863822e+01
1701 1 1.69299438043041448e+01
1702 1 2.35740970056479995e+01
1703 1 2.44784053965143187e+01
1704 1 1.56070142208125127e+01
1705 1 1.55042147765248952e+01
1706 1 2.16763370520490497e+01
1707 1 1.69357759547825353e+01
1708 1 1.85242747521230875e+01
1709 1 3.52890876030051075e+01
1710 1 3.02711803930212575e+01
1711 1 2.86994150148255542e+01
1712 1 1.62048310725624880e+01
1713 1 2.13780282123980250e+01
1714 1 3.07961419540378465e+01
1715 1 3.02656871860032943e+01
1716 1 2.48814335544109753e+01
1717 1 2.50883701856028836e+01
1718 1 2.37527647066451841e+01
1719 1 2.18074696843996563e+01
1720 1 2.09618660919303892e+01
1721 1 2.34219321502369695e+01
1722 1 2.65579686555895513e+01
1723 1 2.67777142751479431e+01
1724 1 2.77140800797633133e+01
1725 1 2.20252037940800811e+01
1726 1 2.43812955665858659e+01
1727 1 4.06119549800887398e+01
1728 1 3.37172806764017423e+01
1729 1 3.05163656789498958e+01
1730 1 4.58703153261800836e+01
1731 1 4.51003966045315821e+01
1732 1 5.10461309215401400e+01
1733 1 3.94438440904282999e+01
1734 1 4.00296810092701136e+01
1735 1 4.59094546293161230e+01
1736 1 4.83143042145186996e+01
1737 1 4.47859305332641000e+01
1738 1 4.53453697740065920e+01
1739 1 5.13038536266863332e+01
1740 1 5.29440933992291676e+01
1741 1 5.30516293705930195e+01
1742 1 4.15516998909642652e+01
1743 1 4.47597964509985644e+01
1744 1 4.67415152053629868e+01
1745 1 4.60642527283773546e+01
1746 1 3.88471751889559016e+01
1747 1 3.75459169163279043e+01
1748 1 3.65433479508038346e+01
1749 1 3.33443157039227742e+01
1750 1 3.44749299905910860e+01
1751 1 3.48589399029779159e+01
1752 1 3.94252571775420364e+01
1753 1 3.66849976382608745e+01
1754 1 3.39427581165801655e+01
1755 1 4.17558486814937240e+01
1756 1 3.79997862763391581e+01
1757 1 3.77493308158332539e+01
1758 1 3.72863892784753688e+01
1759 1 2.53136951235886762e+01
1760 1 3.14095891528898932e+01
1761 1 2.96165385191480723e+01
1762 1 4.49059776724919004e+01
1763 1 4.85068755167654331e+01
1764 1 4.02833910363273304e+01
1765 1 4.20305726066768628e+01
1766 1 4.59053868062285630e+01
1767 1 4.81152292504983876e+01
1768 1 5.15265653693201173e+01
1769 1 5.44360180790003625e+01
1770 1 5.21355472994288860e+01
1771 1 5.10051231917239249e+01
1772 1 5.02422460494897507e+01
1773 1 5.37616413912741464e+01
1774 1 5.42245910655279104e+01
1775 1 4.68223384182577149e+01
1776 1 4.79118182737652134e+01
1777 1 3.74333041857242534e+01
1778 1 3.36991361834889318e+01
1779 1 2.87661093175036946e+01
1780 1 3.67156511312865987e+01
1781 1 4.33484735642558263e+01
1782 1 4.07035047398500112e+01
1783 1 3.31789554495654855e+01
1784 1 3.86669164080724173e+01
1785 1 3.78969004689646951e+01
1786 1 4.02910275844255850e+01
1787 1 3.93809602310442628e+01
1788 1 3.65229537772743953e+01
1789 1 3.62523972682487567e+01
1790 1 3.94741545158730034e+01
1791 1 3.77590220377237245e+01
1792 1 3.75498078007092602e+01
1793 1 3.28109520407661961e+01
1794 1 3.38784281803756713e+01
1795 1 3.38669862731207445e+01
1796 1 3.39333911488223592e+01
1797 1 3.44631947601465995e+01
1798 1 3.55732170957679443e+01
1799 1 3.29783159987389851e+01
1800 1 2.60413110657444093e+01
1801 1 2.74740516564556252e+01
1802 1 3.13753868362211037e+01
1803 1 3.04827968704217405e+01
1804 1 4.24553501054895790e+01
1805 1 3.86533431627908470e+01
1806 1 3.93968986892263899e+01
1807 1 3.75068311817061044e+01
1808 1 3.59555796816160580e+01
1809 1 3.45727966234497046e+01
1810 1 3.71237096118324246e+01
1811 1 3.42285787314809866e+01
1812 1 3.58826614653912017e+01
1813 1 3.59151412515732957e+01
1814 1 2.89868243731512258e+01
1815 1 3.31684798982110678e+01
1816 1 3.49508679016118933e+01
1817 1 3.16042189611701794e+01
1818 1 3.09807003150107398e+01
1819 1 3.23729587284055569e+01
1820 1 4.08974862742174423e+01
1821 1 4.69234401210208176e+01
1822 1 4.44902896257339151e+01
1823 1 4.38492509341283281e+01
1824 1 3.93534791776440116e+01
1825 1 3.22477048842588303e+01
1826 1 3.57766018087908080e+01
1827 1 4.58702686623869340e+01
1828 1 3.35820921451023224e+01
1829 1 3.94105356071777635e+01
1830 1 4.14294092229002189e+01
1831 1 4.70554520572682904e+01
1832 1 4.78469044388846427e+01
1833 1 4.99464391480464798e+01
1834 1 5.03638351286959463e+01
1835 1 4.65261896626783624e+01
1836 1 5.34186422773533138e+01
1837 1 4.60679551127197016e+01
1838 1 4.82503229315755107e+01
1839 1 3.77187010453083644e+01
1840 1 3.90563264305149787e+01
1841 1 3.68741362680239320e+01
1842 1 3.87699030950454997e+01
1843 1 3.74554577459828550e+01
1844 1 3.78285227303563474e+01
1845 1 4.24284496514974734e+01
1846 1 4.42042664610325247e+01
1847 1 4.82659537793656384e+01
1848 1 5.10498865595693871e+01
1849 1 3.62151545363802114e+01
1850 1 3.75621786060333633e+01
1851 1 3.69450040780062352e+01
1852 1 4.00314833779006278e+01
1853 1 3.49730840122965603e+01
1854 1 3.40400344452718358e+01
1855 1 3.05019986003647716e+01
1856 1 3.61077459727422720e+01
1857 1 3.26744449803899784e+01
1858 1 3.06052245555718159e+01
1859 1 2.95475979678010958e+01
1860 1 2.95806688515156502e+01
1861 1 2.46530947541982783e+01
1862 1 2.89119717546802093e+01
1863 1 3.97180804170076343e+01
1864 1 3.89971357139951280e+01
1865 1 3.67909526468944748e+01
1866 1 3.91458406268310455e+01
1867 1 4.82456393065086289e+01
1868 1 3.97516564314233420e+01
1869 1 4.45245858167891484e+01
1870 1 3.63331200331088482e+01
1871 1 2.80514913236002315e+01
1872 1 3.17812752501899496e+01
1873 1 3.18413152722780559e+01
1874 1 3.28719600295185543e+01
1875 1 2.49113868394831499e+01
1876 1 3.25133658593629207e+01
1877 1 2.10615056409378134e+01
1878 1 1.75634614420922226e+01
1879 1 1.92172452842118631e+01
1880 1 1.92269756419771340e+01
1881 1 1.74009925824357694e+01
1882 1 2.82429293341479664e+01
1883 1 2.83780506632297218e+01
1884 1 3.22966132468042630e+01
1885 1 2.32223628187975670e+01
1886 1 2.49629361858579628e+01
1887 1 2.54253969902738426e+01
1888 1 2.02094963874476719e+01
1889 1 2.31993953933695991e+01
1890 1 1.92469017753548108e+01
1891 1 2.23337174106753018e+01
1892 1 1.88678594202954208e+01
1893 1 1.68195693616469093e+01
1894 1 1.53943833812363042e+01
1895 1 1.41195824941874370e+01
1896 1 1.81817509342404300e+01
1897 1 1.52418747397745857e+01
1898 1 1.65196872062382667e+01
1899 1 1.79932570386478190e+01
1900 1 1.29869393221835114e+01
1901 1 1.55793175554406851e+01
1902 1 1.54574863367355384e+01
1903 1 1.09392363032943329e+01
1904 1 1.17786984946234430e+01
1905 1 1.26349566069210244e+01
1906 1 1.41275502792106487e+01
1907 1 1.21214052208832612e+01
1908 1 1.33839405399298883e+01
1909 1 1.43571016072305664e+01
1910 1 1.13714278931330437e+01
1911 1 1.21765686824141035e+01
1912 1 1.42025972230496258e+01
1913 1 1.41467062984101037e+01
1914 1 1.38591503941301326e+01
1915 1 1.34727929108482734e+01
1916 1 2.67569171774223840e+01
1917 1 2.69693112145752529e+01
1918 1 2.66940293395235848e+01
1919 1 1.16076987967008876e+01
1920 1 1.19411472526268234e+01
1921 1 1.25932425744267391e+01
1922 1 1.76897291695157435e+01
1923 1 2.27191707751685570e+01
1924 1 1.61065751410209366e+01
1925 1 1.82605878337826510e+01
1926 1 2.96217667879638782e+01
1927 1 2.76570029078116910e+01
1928 1 2.51949014603315398e+01
1929 1 2.81342070273053864e+01
1930 1 2.69741742608976018e+01
1931 1 2.07713938964743434e+01
1932 1 2.22154139511509712e+01
1933 1 2.39153234855787140e+01
1934 1 3.11905197304594992e+01
1935 1 2.25514012176281469e+01
1936 1 3.09480591007435564e+01
1937 1 3.66190868083277650e+01
1938 1 3.75464460813871028e+01
1939 1 3.99603963942619060e+01
1940 1 4.08060270541030548e+01
1941 1 3.34384029087818533e+01
1942 1 3.86767928831551870e+01
1943 1 3.83482131287135886e+01
1944 1 3.53189139410608632e+01
1945 1 3.25348991879567677e+01
1946 1 3.43413111043119486e+01
1947 1 3.70734428615045744e+01
1948 1 3.53580207470123895e+01
1949 1 2.91230928105643336e+01
1950 1 3.27625683163615378e+01
1951 1 2.21517323366340051e+01
1952 1 2.19765874793169615e+01
1953 1 2.53635946984060574e+01
1954 1 2.75403221126328006e+01
1955 1 1.39754587842269888e+01
1956 1 1.60194049572858432e+01
1957 1 1.59465487205266783e+01
1958 1 1.31997841608691253e+01
1959 1 1.56936158300763200e+01
1960 1 1.82937016727149384e+01
1961 1 1.61749635485472574e+01
1962 1 1.14246973376728551e+01
1963 1 1.36109939865672782e+01
1964 1 2.27724805357872917e+01
1965 1 2.84391065415524338e+01
1966 1 2.39292970781222429e+01
1967 1 1.66373485015971880e+01
1968 1 2.54062377172404794e+01
1969 1 3.71327593980783135e+01
1970 1 3.06762077432803295e+01
1971 1 3.58693525468644054e+01
1972 1 4.72886456836330851e+01
1973 1 4.12001103808471782e+01
1974 1 3.88467031045330060e+01
1975 1 4.46590033925773398e+01
1976 1 4.24519948040030926e+01
1977 1 4.54946194248843554e+01
1978 1 4.57610196470100092e+01
1979 1 4.78618223208752056e+01
1980 1 4.44633394198841430e+01
1981 1 4.10459744567582447e+01
1982 1 5.30409407281745899e+01
1983 1 5.14592396322890977e+01
1984 1 4.07664005203879753e+01
1985 1 3.26039038430707322e+01
1986 1 3.29263564456754381e+01
1987 1 3.28569527654110942e+01
1988 1 3.32526394627331356e+01
1989 1 1.98875698115365438e+01
1990 1 3.33925516530434621e+01
1991 1 3.26996973324118585e+01
1992 1 2.95031227896296748e+01
1993 1 2.91570557500274461e+01
1994 1 2.96922351207821116e+01
1995 1 1.44772399338716298e+01
1996 1 2.44732354337663232e+01
1997 1 1.95345162270853976e+01
1998 1 2.46626196270159284e+01
1999 1 2.05731403214068855e+01
2000 1 2.57590567390548131e+01
2001 1 3.25848397633786035e+01
2002 1 3.13677454485093143e+01
2003 1 2.64231200642560147e+01
2004 1 2.86434678470032615e+01
2005 1 3.01321174143075758e+01
2006 1 2.92459202666745917e+01
2007 1 2.75106478697991825e+01
2008 1 2.83241094581643544e+01
2009 1 3.08951816554384102e+01
2010 1 3.26720861138682039e+01
2011 1 3.29399432395701197e+01
2012 1 3.26412445077406090e+01
2013 1 3.14769260845321845e+01
2014 1 3.24054871374866451e+01
2015 1 3.29428774332867178e+01
2016 1 3.25892887596487384e+01
2017 1 3.01766171640909917e+01
2018 1 2.73362779055823033e+01
2019 1 2.99304001940710194e+01
2020 1 3.19267799516920796e+01
2021 1 3.24173614478616585e+01
2022 1 3.17183214302603282e+01
2023 1 3.28008912758503044e+01
2024 1 3.28092125916994775e+01
2025 1 3.24497564242382381e+01
2026 1 3.33912321753817380e+01
2027 1 3.39891911236281601e+01
2028 1 3.36287139005231737e+01
2029 1 3.41563223033638010e+01
2030 1 3.31941529011102148e+01
2031 1 3.37660142244684920e+01
2032 1 3.08079846262151200e+01
2033 1 2.91721188196960100e+01
2034 1 3.18945821027610599e+01
2035 1 2.96251392976221162e+01
2036 1 3.34757331957091466e+01
2037 1 3.35358690547869998e+01
2038 1 3.30630821535723882e+01
2039 1 3.64215140892880029e+01
2040 1 3.86358942535068621e+01
2041 1 3.53139902088604529e+01
2042 1 2.91728844223965247e+01
2043 1 3.29874320901985172e+01
2044 1 2.77874560059875222e+01
2045 1 2.92943995331111608e+01
2046 1 2.47116630863908213e+01
2047 1 2.52193463628936279e+01
2048 1 2.90338464221161132e+01
2049 1 3.37431329509004883e+01
2050 1 3.15874984686826359e+01
2051 1 2.48671913773864084e+01
2052 1 3.13260287697210558e+01
2053 1 2.78718442802415574e+01
2054 1 3.09699339099565805e+01
2055 1 1.89821709137645165e+01
2056 1 2.36664837410312145e+01
2057 1 2.86776088343229567e+01
2058 1 2.99417769380916567e+01
2059 1 1.21347750759125326e+01
2060 1 1.97014046596340648e+01
2061 1 3.44972302490093554e+01
2062 1 3.39990420226396068e+01
2063 1 2.88212330200854332e+01
2064 1 2.31278862854555314e+01
2065 1 1.43647868543328645e+01
2066 1 1.22175029811014042e+01
2067 1 1.54471401035450633e+01
2068 1 1.95788690044978004e+01
2069 1 2.53045140691005948e+01
2070 1 2.37409413707769836e+01
2071 1 1.69264049191813299e+01
2072 1 3.11973027179884603e+01
2073 1 2.28612945656445525e+01
2074 1 4.14687615377938599e+01
2075 1 4.65163645976718030e+01
2076 1 2.32347596307120199e+01
2077 1 2.24281683380572368e+01
2078 1 2.82755129798841303e+01
2079 1 2.84136372054522433e+01
2080 1 2.67928959930061730e+01
2081 1 2.60884275688620448e+01
2082 1 2.81426658887978896e+01
2083 1 1.84577378009318132e+01
2084 1 2.16985152362187819e+01
2085 1 2.24422961569971520e+01
2086 1 2.09558967873213504e+01
2087 1 1.97502880461688157e+01
2088 1 2.14439223641644503e+01
2089 1 2.43335442521247174e+01
2090 1 2.22435568985061316e+01
2091 1 1.75782244551040243e+01
2092 1 1.64613159120936601e+01
2093 1 1.92148233986918733e+01
2094 1 1.37559681303732706e+01
2095 1 1.48020265869856367e+01
2096 1 1.34869989057789379e+01
2097 1 1.44949006997810486e+01
2098 1 1.37734399192551784e+01
2099 1 2.27608465250502441e+01
2100 1 2.44507165616737048e+01
2101 1 2.47657079440179757e+01
2102 1 1.82237730189186564e+01
2103 1 2.10280938492060869e+01
2104 1 1.82263794740758911e+01
2105 1 2.05595514045754300e+01
2106 1 1.84069705594758837e+01
2107 1 1.91246665059692909e+01
2108 1 2.00341031795866051e+01
2109 1 2.22845496922610913e+01
2110 1 1.71716843077359442e+01
2111 1 1.84273471610630715e+01
2112 1 1.78562498702877939e+01
2113 1 1.91694218111026942e+01
2114 1 1.72523218093420496e+01
2115 1 1.76122780931211480e+01
2116 1 1.78800433885372385e+01
2117 1 1.81483775806335643e+01
2118 1 1.74620182932755590e+01
2119 1 7.18851619143143328e+00
2120 1 6.08798807334856296e+00
2121 1 8.50790319047945509e+00
2122 1 2.92832150007506868e+01
2123 1 6.27710877597914951e+00
2124 1 2.43300418579340452e+01
2125 1 2.21130669275470169e+01
2126 1 3.32417355374513832e+01
2127 1 2.34034883302828405e+01
2128 1 2.47307171178934446e+01
2129 1 3.24438029400458348e+01
2130 1 3.52859653445329187e+01
2131 1 3.79303238062625567e+01
2132 1 3.33923890633478422e+01
2133 1 2.66134443073478302e+01
2134 1 2.60170549652960439e+01
2135 1 2.81865854293160787e+01
2136 1 3.06112443395157001e+01
2137 1 3.96330413255662251e+01
2138 1 3.74778462186260697e+01
2139 1 3.96650289025350631e+01
2140 1 3.77813915188285421e+01
2141 1 3.95042711746958020e+01
2142 1 3.72911023680862073e+01
2143 1 3.83030740930278171e+01
2144 1 3.93616086035777286e+01
2145 1 3.65866299121137430e+01
2146 1 3.77995829361119746e+01
2147 1 3.95774893905070968e+01
2148 1 3.46208009993211263e+01
2149 1 2.39335444404505999e+01
2150 1 2.27575487542405241e+01
2151 1 2.67482469944569736e+01
2152 1 2.84507587377129383e+01
2153 1 2.52902896684891196e+01
2154 1 2.87834327675703072e+01
2155 1 2.60304980890830464e+01
2156 1 3.16337296238452907e+01
2157 1 2.81455627811929467e+01
2158 1 2.89157481204541433e+01
2159 1 3.22531826254640563e+01
2160 1 3.05895477873695896e+01
2161 1 3.39913454335911069e+01
2162 1 3.36096464058899258e+01
2163 1 3.19561439307343420e+01
2164 1 2.49127154639194579e+01
2165 1 2.96251539972526565e+01
2166 1 3.02068839914420941e+01
2167 1 2.06773482413946645e+01
2168 1 2.25691079127533207e+01
2169 1 2.34415987490372508e+01
2170 1 2.69224535587862412e+01
2171 1 2.84015517843870988e+01
2172 1 2.77762284981135110e+01
2173 1 1.24651336545363662e+01
2174 1 1.07947911357531634e+01
2175 1 1.17083458578929438e+01
2176 1 1.74238127159542024e+01
2177 1 1.86735505681408469e+01
2178 1 2.04696051667739667e+01
2179 1 1.86567743949901974e+01
2180 1 1.41238649826182083e+01
2181 1 3.78169686755129604e+01
2182 1 3.51160472029624557e+01
2183 1 3.31284891819913057e+01
2184 1 3.69465826827593204e+01
2185 1 1.23076149420195815e+01
2186 1 2.51717621386830999e+01
2187 1 2.83551818628801620e+01
2188 1 2.53321072417024915e+01
2189 1 2.42686718117203633e+01
2190 1 1.84223889914952430e+01
2191 1 1.90030007817831752e+01
2192 1 1.99558588048262280e+01
2193 1 2.03648067095033056e+01
2194 1 3.09977452572343708e+01
2195 1 3.11568189689291941e+01
2196 1 3.15074635906943783e+01
2197 1 3.16120914006007894e+01
2198 1 2.70416520015391697e+01
2199 1 1.78428946806155224e+01
2200 1 1.45689971812039953e+01
2201 1 1.31970038358826045e+01
2202 1 3.74399809337262042e+01
2203 1 3.48958458717429991e+01
2204 1 4.25033005411685139e+01
2205 1 4.03986766156753276e+01
2206 1 3.91990046365517486e+01
2207 1 3.54267141019096030e+01
2208 1 5.33686021808462598e+01
2209 1 3.89293226868108704e+01
2210 1 3.80333936609715906e+01
2211 1 1.80220018457346853e+01
2212 1 1.60015214666430303e+01
2213 1 1.60608797500121590e+01
2214 1 1.83649159295992135e+01
2215 1 1.80977817155590621e+01
2216 1 6.17616892361850045e+00
2217 1 1.63536545215972886e+01
2218 1 2.66669762174038318e+01
2219 1 2.43903009931677310e+01
2220 1 2.83647090391909700e+01
2221 1 2.67535247607265383e+01
2222 1 6.05636400299338575e+01
2223 1 9.61870999836330043e+00
2224 1 1.82849121155517622e+01
2225 1 3.48507056260847250e+01
2226 1 2.81109165776472203e+01
2227 1 2.73470242930785084e+01
2228 1 3.59265465155941541e+01
2229 1 2.09393184378951460e+01
2230 1 1.39161613838624802e+01
2231 1 1.65817707492493334e+01
2232 1 1.78820087514240313e+01
2233 1 1.70119934241697770e+01
2234 1 1.98359493787413790e+01
2235 1 1.95880159048114493e+01
2236 1 2.15488019396675874e+01
2237 1 2.96150995133352986e+01
2238 1 3.04554866952136365e+01
2239 1 1.75098412275647419e+01
2240 1 2.90007279433247049e+01
2241 1 2.56820118752224928e+01
2242 1 2.52208917831135722e+01
2243 1 3.41603693618134159e+01
2244 1 3.15376993310666336e+01
2245 1 3.29062942808811201e+01
2246 1 2.78066893591554170e+01
2247 1 3.03705607832167139e+01
2248 1 3.01560176397738147e+01
2249 1 2.84462434898959202e+01
2250 1 2.74736508114506890e+01
2251 1 2.71261883303958875e+01
2252 1 2.75075627051970173e+01
2253 1 2.82026414542048727e+01
2254 1 1.46666801391500350e+01
2255 1 6.62942805625278186e+00
2256 1 2.82007091423661613e+01
2257 1 2.63579285159801557e+01
2258 1 2.68687880797125729e+01
2259 1 2.70080672093409007e+01
2260 1 2.67111025062664922e+01
2261 1 2.61888114898581890e+01
2262 1 2.60652917822709682e+01
2263 1 3.43752876497901170e+01
2264 1 3.21744990546414655e+01
2265 1 3.12078924379675513e+01
2266 1 3.22602438323106355e+01
2267 1 3.22331503641591794e+01
2268 1 3.29204906030620066e+01
2269 1 3.10383151260499517e+01
2270 1 3.03541502196749917e+01
2271 1 2.16907014994439180e+01
2272 1 1.88640321743170922e+01
2273 1 2.10912197970686250e+01
2274 1 3.23120200943853177e+01
2275 1 3.33963088506659034e+01
2276 1 3.16078549769862676e+01
2277 1 3.61730490959791382e+01
2278 1 2.29630106852774283e+01
2279 1 2.48242487479258962e+01
2280 1 2.58709303888777207e+01
2281 1 2.56431610178866265e+01
2282 1 2.63857275629166530e+01
2283 1 3.08363044495429470e+01
2284 1 2.81673644910019583e+01
2285 1 2.76202363644956570e+01
2286 1 2.61699140557249201e+01
2287 1 2.71465414263864808e+01
2288 1 2.61583176370875634e+01
2289 1 2.57954918801830786e+01
2290 1 2.62615563813070310e+01
2291 1 2.64296851995731146e+01
2292 1 1.94563973786514204e+01
2293 1 2.05073571494581053e+01
2294 1 1.96273404786546806e+01
2295 1 1.90007714192235717e+01
2296 1 1.92097481896570059e+01
2297 1 6.80306296760521576e+01
2298 1 6.28805712530671173e+01
2299 1 6.57240112605028344e+01
2300 1 6.49217981109705988e+01
2301 1 5.95973258129014809e+01
2302 1 5.11872936962848328e+01
2303 1 1.48165380390928743e+01
2304 1 2.62848577480959129e+01
2305 1 2.52004131069639037e+01
2306 1 2.66274555028814746e+01
2307 1 2.07941601284779516e+01
2308 1 2.44754281045043314e+01
2309 1 2.38967330371229529e+01
2310 1 2.15816941969606582e+01
2311 1 1.50890293715175243e+01
2312 1 1.63891693077346687e+01
2313 1 2.53923672476414097e+01
2314 1 1.93459132147859130e+01
2315 1 2.96440790920952146e+01
2316 1 2.79368795761915649e+01
2317 1 2.66922952189721983e+01
2318 1 2.78360977982141975e+01
2319 1 3.14496562489645761e+01
2320 1 3.19749480742874539e+01
2321 1 3.27297875865384071e+01
2322 1 2.99096265831181540e+01
2323 1 3.07393811736640359e+01
2324 1 1.70842747468714933e+01
2325 1 2.04119771746765331e+01
2326 1 1.71195257447058182e+01
2327 1 1.66369571415386446e+01
2328 1 1.73794668664070180e+01
2329 1 1.85319513447138391e+01
2330 1 1.88477791163441459e+01
2331 1 1.89609404463677400e+01
2332 1 1.93974340546917219e+01
2333 1 1.45732370288528053e+01
2334 1 1.45853185239612291e+01
2335 1 1.53993202399288300e+01
2336 1 1.98505308303228425e+01
2337 1 2.03407798341148585e+01
2338 1 2.01308009539354487e+01
2339 1 2.01280940935260801e+01
2340 1 2.40787754480350671e+01
2341 1 2.08200218060668298e+01
2342 1 2.32759249688617693e+01
2343 1 2.06532079405629041e+01
2344 1 2.08823078947348115e+01
2345 1 1.35277891415749867e+01
2346 1 1.06348625344903507e+01
2347 1 1.86890577157791888e+01
2348 1 2.93661187496069651e+01
2349 1 3.96934066596534834e+01
2350 1 3.83932403754500626e+01
2351 1 1.98443434220361503e+01
2352 1 1.21138229911413653e+01
2353 1 1.29928595230042863e+01
2354 1 1.27732539154267801e+01
2355 1 1.26214606761719512e+01
2356 1 1.09460096221231407e+01
2357 1 1.06547859993059788e+01
2358 1 1.22289338462009596e+01
2359 1 1.64076444912191306e+01
2360 1 1.23066117195584273e+01
2361 1 9.94616844484950136e+00
2362 1 1.19802812912394963e+01
2363 1 1.78718771428333483e+01
2364 1 2.06135418471437220e+01
2365 1 2.34996144470336219e+01
2366 1 2.22065356572535002e+01
2367 1 1.88219394815026213e+01
2368 1 2.02715265877168243e+01
2369 1 1.65207720804920974e+01
2370 1 1.76388141520952431e+01
2371 1 1.07522297990355256e+01
2372 1 1.18597188522727031e+01
2373 1 1.30642661188240439e+01
2374 1 1.18226427707857429e+01
2375 1 2.29125318996745548e+01
2376 1 1.95963973884403941e+01
2377 1 1.93262731041928930e+01
2378 1 3.04973127549415075e+01
2379 1 2.81494209759259277e+01
2380 1 3.09033537949045893e+01
2381 1 3.26362396818542351e+01
2382 1 2.68461961705549825e+01
2383 1 2.85109854523971187e+01
2384 1 2.80179563704824801e+01
2385 1 3.00055355852453971e+01
2386 1 2.52786995283369862e+01
2387 1 2.63456569480973677e+01
2388 1 2.53780869547281220e+01
2389 1 2.54587140399025635e+01
2390 1 2.56963881187120542e+01
2391 1 2.50755690535069711e+01
2392 1 2.50674778511348997e+01
2393 1 2.54388962493165067e+01
2394 1 3.07541024942498460e+01
2395 1 3.07681328865452741e+01
2396 1 2.96267174124268919e+01
2397 1 3.13054176436949803e+01
2398 1 3.11139563586245913e+01
2399 1 3.10734384923583917e+01
2400 1 2.74703250070238809e+01
2401 1 2.66722549603841586e+01
2402 1 2.45652385868533081e+01
2403 1 2.64850058523661929e+01
2404 1 2.68994030532150461e+01
2405 1 2.61625342581850191e+01
2406 1 2.72232067850380659e+01
2407 1 3.00850883264532669e+01
2408 1 2.82189847209270575e+01
2409 1 2.62291929648400277e+01
2410 1 2.54789741109522403e+01
2411 1 2.22662471701527593e+01
2412 1 2.54573003037782257e+01
2413 1 2.80072526796423169e+01
2414 1 1.94977361389019421e+01
2415 1 1.97684680731996600e+01
2416 1 2.27624938944166075e+01
2417 1 1.67073506469941684e+01
2418 1 1.60046332851953963e+01
2419 1 1.50255009965082671e+01
2420 1 1.56770561136372191e+01
2421 1 1.70068858801797838e+01
2422 1 2.22604250490915128e+01
2423 1 1.72060939507791204e+01
2424 1 2.00377326471503778e+01
2425 1 1.85385054753697247e+01
2426 1 1.74789710343000877e+01
2427 1 1.73948429607521327e+01
2428 1 1.78545709840166005e+01
2429 1 1.77911078119342143e+01
2430 1 1.82439473271292911e+01
2431 1 2.27088842673683295e+01
2432 1 2.41112309939492206e+01
2433 1 1.15396815718957271e+01
2434 1 1.20347360830445229e+01
2435 1 1.83080294763447107e+01
2436 1 2.31431878952655552e+01
2437 1 2.24256498618583819e+01
2438 1 1.84414731331326465e+01
2439 1 1.39546689854199606e+01
2440 1 1.71584928935398437e+01
2441 1 1.27983473126156184e+01
2442 1 2.79348965912069360e+01
2443 1 2.90356635245207677e+01
2444 1 3.25488241016727358e+01
2445 1 2.22074363951124880e+01
2446 1 3.08972028686277085e+01
2447 1 4.04135459073520309e+01
2448 1 4.11090916506513651e+01
2449 1 3.86013709317776161e+01
2450 1 3.89729071851643951e+01
2451 1 2.19192106209528532e+01
2452 1 2.04976842265627397e+01
2453 1 2.45593317234972481e+01
2454 1 2.82479573497354508e+01
2455 1 1.80659665894807873e+01
2456 1 1.74999424978129383e+01
2457 1 2.62741736762100082e+01
2458 1 2.34122943744036256e+01
2459 1 2.21439050105669750e+01
2460 1 2.48246300346782611e+01
2461 1 3.29947948974598901e+01
2462 1 2.91557791775608734e+01
2463 1 3.07540506493945571e+01
2464 1 2.84369997391524905e+01
2465 1 2.84007374843456759e+01
2466 1 3.13525759638361983e+01
2467 1 3.05294634312721094e+01
2468 1 3.44745575355964817e+01
2469 1 3.55087008121696641e+01
2470 1 3.06627207530531862e+01
2471 1 2.76186701264304908e+01
2472 1 3.08243626378615510e+01
2473 1 3.01256946602803239e+01
2474 1 3.29825996295284796e+01
2475 1 3.27191455728387766e+01
2476 1 3.01830387244073286e+01
2477 1 3.03989831407501541e+01
2478 1 2.93130928998832374e+01
2479 1 3.50319242887946132e+01
2480 1 3.19657945949322055e+01
2481 1 3.22933215906015292e+01
2482 1 3.57062450396168813e+01
2483 1 3.54785375979041078e+01
2484 1 3.39129381480750567e+01
2485 1 3.44374981911857247e+01
2486 1 3.23064069934323683e+01
2487 1 2.95072989999706685e+01
2488 1 3.10654194586207986e+01
2489 1 3.34168976410719978e+01
2490 1 3.46469229532016598e+01
2491 1 3.62798778637926276e+01
2492 1 3.14841299163038926e+01
2493 1 2.91828191360417080e+01
2494 1 2.80553108220382903e+01
2495 1 3.89729081290082675e+01
2496 1 3.83347985798223334e+01
2497 1 3.41704998292568192e+01
2498 1 3.68324445783754015e+01
2499 1 1.83772975241012944e+01
2500 1 2.82280183235556485e+01
2501 1 2.50269676991983552e+01
2502 1 2.93079052470173096e+01
2503 1 3.51824079202272202e+01
2504 1 2.94946121148656957e+01
2505 1 4.09204463825107894e+01
2506 1 3.94265413752297675e+01
2507 1 3.71971436489108029e+01
2508 1 3.24882424244190489e+01
2509 1 3.71669633514366922e+01
2510 1 3.59124960222395515e+01
2511 1 2.70923037712259394e+01
2512 1 2.68635394091913469e+01
2513 1 2.17187855275726562e+01
2514 1 1.97947327536037285e+01
2515 1 2.58785310446052321e+01
2516 1 2.04061582584958323e+01
2517 1 2.17101661515102933e+01
2518 1 2.01204483521411532e+01
2519 1 2.24268273197345174e+01
2520 1 2.02226701057466478e+01
2521 1 2.14584868013298440e+01
2522 1 2.62784630395517134e+01
2523 1 2.37678687869094638e+01
2524 1 3.33818052929038060e+01
2525 1 3.52477144208925495e+01
2526 1 2.69247843605487489e+01
2527 1 2.34707026523627356e+01
2528 1 2.59466286441167178e+01
2529 1 2.78656670310755246e+01
2530 1 2.91661797788968222e+01
2531 1 3.35682815776939734e+01
2532 1 3.92842866721214392e+01
2533 1 3.61789575387156148e+01
2534 1 1.04302464526296088e+01
2535 1 1.02248092032498334e+01
2536 1 3.17257908349294233e+01
2537 1 2.55058282095473778e+01
2538 1 2.02988320550852315e+01
2539 1 3.23646618704187219e+01
2540 1 2.21539362062064349e+01
2541 1 1.13771586138789385e+01
2542 1 1.63411547622599969e+01
2543 1 1.31111668170810365e+01
2544 1 1.82212494443304642e+01
2545 1 1.95077539674033886e+01
2546 1 1.85022493312120559e+01
2547 1 1.43410449871078178e+01
2548 1 1.29964466822423237e+01
2549 1 1.48959065556680414e+01
2550 1 1.50402874627687737e+01
2551 1 1.51298899473267578e+01
2552 1 1.58789184957592848e+01
2553 1 1.55085245578856448e+01
2554 1 2.01597820802634651e+01
2555 1 1.92816621763087177e+01
2556 1 1.23504113733331859e+01
2557 1 1.28173030979662741e+01
2558 1 1.59542425566965331e+01
2559 1 1.37130427818152203e+01
2560 1 2.34464491077948693e+01
2561 1 2.11164326084929073e+01
2562 1 2.09711408605020360e+01
2563 1 2.70278127343602677e+01
2564 1 1.95262798324075639e+01
2565 1 2.23650693903664006e+01
2566 1 2.16165079795200761e+01
2567 1 2.22632672076523299e+01
2568 1 2.55910037067297473e+01
2569 1 2.64761119457091176e+01
2570 1 2.50795255037806761e+01
2571 1 2.55642692558254367e+01
2572 1 2.64639972895463558e+01
2573 1 2.72596405410765250e+01
2574 1 2.74429834981283278e+01
2575 1 2.28975673663200467e+01
2576 1 2.77110018460286298e+01
2577 1 2.82801805403355928e+01
2578 1 2.30090589990719430e+01
2579 1 2.56314651878199165e+01
2580 1 2.88821344627893275e+01
2581 1 2.65238844571902277e+01
2582 1 2.09022566967872692e+01
2583 1 1.81919912923314016e+01
2584 1 1.76311268923199087e+01
2585 1 1.85919980233047362e+01
2586 1 2.99001849393772652e+01
2587 1 3.27172156533403822e+01
2588 1 2.00136084579406983e+01
2589 1 2.20406916562032080e+01
2590 1 2.44126519222698093e+01
2591 1 2.31458411694541830e+01
2592 1 2.42413390281069070e+01
2593 1 2.57201697081300615e+01
2594 1 2.54311630438012664e+01
2595 1 3.24827453262967154e+01
2596 1 2.99562297560267368e+01
2597 1 2.95628296086096434e+01
2598 1 3.03950660493607394e+01
2599 1 2.62123062901776329e+01
2600 1 2.37466710517496935e+01
2601 1 2.49837456679703713e+01
2602 1 2.28201342015365185e+01
2603 1 3.26335977692704873e+01
2604 1 3.18011343629842749e+01
2605 1 2.81278901498860243e+01
2606 1 2.25462469373345265e+01
2607 1 2.36430567918801202e+01
2608 1 2.14520515214319261e+01
2609 1 1.78475529117206904e+01
2610 1 2.29389436431860965e+01
2611 1 3.04450978387058875e+01
2612 1 3.43138142212993245e+01
2613 1 3.43193497252426170e+01
2614 1 2.97876265636861177e+01
2615 1 2.63136538611509714e+01
2616 1 2.64061124366855253e+01
2617 1 2.99412578617470722e+01
2618 1 3.08656612239876509e+01
2619 1 2.87721374846895159e+01
2620 1 3.00618911087165124e+01
2621 1 2.91858498402418078e+01
2622 1 2.98830292977725449e+01
2623 1 2.83760218200384493e+01
2624 1 2.87735899121628051e+01
2625 1 2.95520173657614471e+01
2626 1 3.09516070293693097e+01
2627 1 3.17064103720803736e+01
2628 1 3.31065973067002588e+01
2629 1 3.02498749876246187e+01
2630 1 3.14462332931150392e+01
2631 1 3.20307518995771261e+01
2632 1 2.78972150932295655e+01
2633 1 2.69441481140773043e+01
2634 1 2.35037374858777781e+01
2635 1 2.20927453348365326e+01
2636 1 2.53494703351787685e+01
2637 1 2.60863460067037209e+01
2638 1 2.53343137584112696e+01
2639 1 2.65705733196517571e+01
2640 1 2.46012152629079104e+01
2641 1 3.23042579628454050e+01
2642 1 2.64614710020869808e+01
2643 1 2.90117907423856813e+01
2644 1 2.66180393541595421e+01
2645 1 2.57770958570573079e+01
2646 1 2.64504174713532301e+01
2647 1 2.52993272366679633e+01
2648 1 2.68072373868640383e+01
2649 1 2.82958382685768761e+01
2650 1 1.99791204335597889e+01
2651 1 3.19211836072775270e+01
2652 1 3.00250895676283918e+01
2653 1 3.17864314626147006e+01
2654 1 3.35320943661142152e+01
2655 1 3.76817665620963140e+01
2656 1 3.67684925981477235e+01
2657 1 3.60794779841252193e+01
2658 1 4.01968338157910523e+01
2659 1 3.76775617474944866e+01
2660 1 3.58922800316877399e+01
2661 1 3.89850196272041671e+01
2662 1 3.86716946846546534e+01
2663 1 3.75888689471485478e+01
2664 1 3.68444732517367228e+01
2665 1 3.49907205851326992e+01
2666 1 3.30316906454942227e+01
2667 1 3.13400812618634603e+01
2668 1 2.95156958149588924e+01
2669 1 2.56402259949357614e+01
2670 1 2.50389403262114563e+01
2671 1 2.72730450191167328e+01
2672 1 2.29684208510323060e+01
2673 1 3.26258261202899504e+01
2674 1 2.30771143148251454e+01
2675 1 2.25321575270733874e+01
2676 1 2.17692628681856704e+01
2677 1 2.18576557067483783e+01
2678 1 2.28459983399371893e+01
2679 1 2.39737421678057068e+01
2680 1 2.80116511443582645e+01
2681 1 2.55868670028259828e+01
2682 1 2.23341391865974579e+01
2683 1 2.17381388260778614e+01
2684 1 2.44168475851772868e+01
2685 1 2.57758843632137555e+01
2686 1 1.96645435021689075e+01
2687 1 3.57279110081471032e+01
2688 1 3.61943868845261960e+01
2689 1 3.66935420852113694e+01
2690 1 3.16882253654393473e+01
2691 1 3.08132079615002787e+01
2692 1 3.01475550915066144e+01
2693 1 3.54209781057556157e+01
2694 1 2.88808378345442556e+01
2695 1 2.93635780169361844e+01
2696 1 3.03424529106099143e+01
2697 1 1.96645877155101552e+01
2698 1 1.13860362862747326e+01
2699 1 1.43708873707564404e+01
2700 1 1.69860054999321832e+01
2701 1 1.28113000198911013e+01
2702 1 1.03651547401811879e+01
2703 1 1.08774113161672457e+01
2704 1 1.10408513368402268e+01
2705 1 1.49517252367085298e+01
2706 1 1.20955829236675818e+01
2707 1 2.08612426208603168e+01
2708 1 1.86545548734738382e+01
2709 1 1.50885023571977843e+01
2710 1 3.73576768006122748e+01
2711 1 3.59839314102267593e+01
2712 1 3.84694963937713652e+01
2713 1 3.74858632457907675e+01
2714 1 3.46918622741502034e+01
2715 1 2.82595233688484981e+01
2716 1 2.99997910718381604e+01
2717 1 2.97625552270673026e+01
2718 1 2.88104689575704640e+01
2719 1 1.65868764593501830e+01
2720 1 1.89253562379837383e+01
2721 1 3.39234337695351087e+01
2722 1 1.60719566442295907e+01
2723 1 2.54624761809463820e+01
2724 1 2.52950500528039051e+01
2725 1 2.57080383516842694e+01
2726 1 1.98813090622641937e+01
2727 1 1.47618602328126460e+01
2728 1 1.87430566367150249e+01
2729 1 1.83009236071155215e+01
2730 1 1.84656128659709395e+01
2731 1 1.67837313426355657e+01
2732 1 2.01927222703882947e+01
2733 1 1.89192356564671798e+01
2734 1 1.93463859169841115e+01
2735 1 1.80355065946921798e+01
2736 1 2.00193185339503295e+01
2737 1 1.62879211017669405e+01
2738 1 1.70025511956738455e+01
2739 1 2.25196742770615828e+01
2740 1 2.28025727111317522e+01
2741 1 2.18683963325324129e+01
2742 1 2.08150838110466090e+01
2743 1 2.18003484096722069e+01
2744 1 2.02619740666356378e+01
2745 1 1.92755763032058098e+01
2746 1 1.57580706045546766e+01
2747 1 1.57518693345510901e+01
2748 1 2.02974230249178333e+01
2749 1 2.23213920003696380e+01
2750 1 1.78540366179606345e+01
2751 1 1.76030772430218860e+01
2752 1 1.52826067286869236e+01
2753 1 1.31714191390151427e+01
2754 1 1.77437844823990929e+01
2755 1 1.64540802342760593e+01
2756 1 1.70857560810020637e+01
2757 1 1.60537817223230519e+01
2758 1 2.45518041121151498e+01
2759 1 2.71290271702959878e+01
2760 1 2.43475015774903163e+01
2761 1 9.39537045774186019e+00
2762 1 1.53245370065261532e+01
2763 1 1.16525736422180888e+01
2764 1 1.27577502482405531e+01
2765 1 1.26267794782271601e+01
2766 1 9.11240470700841243e+00
2767 1 1.53841828653045276e+01
2768 1 1.27342920418840944e+01
2769 1 1.16753597627393635e+01
2770 1 1.51295181841274005e+01
2771 1 1.76791166087389620e+01
2772 1 3.57731487362741731e+01
2773 1 3.62499568163272770e+01
2774 1 3.55620558144098098e+01
2775 1 3.50498017545980147e+01
2776 1 3.49441503675703871e+01
2777 1 3.59482697799911861e+01
2778 1 3.55094181842766474e+01
2779 1 2.96914790526798811e+01
2780 1 3.24108665005646799e+01
2781 1 2.82747660152225855e+01
2782 1 3.21179340082335187e+01
2783 1 3.36325229270467077e+01
2784 1 3.49543341686218554e+01
2785 1 3.23139056414637409e+01
2786 1 3.02680773989786083e+01
2787 1 2.94398665675970221e+01
2788 1 2.99961955027860725e+01
2789 1 2.88927625829500521e+01
2790 1 2.84096353115297653e+01
2791 1 3.45890508262536756e+01
2792 1 2.74959252093288136e+01
2793 1 2.95314924102743568e+01
2794 1 2.76104060877981681e+01
2795 1 3.30559659962360683e+01
2796 1 3.43778603917535932e+01
2797 1 3.37129725515759873e+01
2798 1 3.16589984836019944e+01
2799 1 1.94221818217655589e+01
2800 1 2.09035730406587632e+01
2801 1 3.22186787117619531e+01
2802 1 2.38961471176567137e+01
2803 1 2.46847325465938852e+01
2804 1 2.34980728755264252e+01
2805 1 2.66196241105927669e+01
2806 1 2.93645404244000403e+01
2807 1 2.15996977066684046e+01
2808 1 2.30685415565384027e+01
2809 1 2.15838729983646083e+01
2810 1 2.00365297743592627e+01
2811 1 2.01508242723316293e+01
2812 1 2.25899512697196414e+01
2813 1 2.32519463641603927e+01
2814 1 2.76244477596300264e+01
2815 1 2.12589159050078997e+01
2816 1 4.36683367332186947e+01
2817 1 4.72528922670326708e+01
2818 1 3.29948581329053425e+01
2819 1 3.53695659129334956e+01
2820 1 2.86414327403904210e+01
2821 1 2.78449984195835256e+01
2822 1 1.94074056250535776e+01
2823 1 2.82700030571494487e+01
2824 1 1.40274545212455664e+01
2825 1 1.84753714715265858e+01
2826 1 1.93726877809946956e+01
2827 1 2.55202358565233496e+01
2828 1 2.12033262225227155e+01
2829 1 1.74846732923885320e+01
2830 1 2.58720565346519926e+01
2831 1 1.76575898762247050e+01
2832 1 1.76391156239676761e+01
2833 1 1.46422278628008957e+01
2834 1 1.43127938077860204e+01
2835 1 2.56057638329027348e+01
2836 1 2.62487335066723517e+01
2837 1 2.25779525968967398e+01
2838 1 2.10738027749521137e+01
2839 1 2.23019838235266903e+01
2840 1 2.63414953810519066e+01
2841 1 2.65332261268946112e+01
2842 1 2.71131940045450257e+01
2843 1 2.67828300148809753e+01
2844 1 2.65088394192139347e+01
2845 1 2.70062572661996150e+01
2846 1 3.61022100191008164e+01
2847 1 3.16213024867506007e+01
2848 1 4.85812876222503007e+01
2849 1 4.58794448068762932e+01
2850 1 4.99924894187030304e+01
2851 1 4.66387782915223781e+01
2852 1 3.55192232978241620e+01
2853 1 3.35086345470627691e+01
2854 1 3.86267852588007727e+01
2855 1 2.42497707928653234e+01
2856 1 2.65247384316886858e+01
2857 1 2.74939339466092108e+01
2858 1 4.47808495131867588e+01
2859 1 4.72360416493932505e+01
2860 1 4.95074591199180247e+01
2861 1 4.89170512510921682e+01
2862 1 5.17630491729828748e+01
2863 1 4.87749324538375575e+01
2864 1 4.79872776558367988e+01
2865 1 5.21588815580768710e+01
2866 1 4.34301922417708184e+01
2867 1 3.82860252973093438e+01
2868 1 3.26456761216158000e+01
2869 1 3.10408355560258187e+01
2870 1 3.32713300653179047e+01
2871 1 4.43372419676841574e+01
2872 1 4.21307270887136696e+01
2873 1 3.97951619603923916e+01
2874 1 4.06800131648738414e+01
2875 1 4.01637540746266595e+01
2876 1 3.88461347241323551e+01
2877 1 3.88864622902399262e+01
2878 1 3.65045797191651076e+01
2879 1 3.42410511159051154e+01
2880 1 3.63964454065478549e+01
2881 1 3.31193888451973280e+01
2882 1 3.28421164284043670e+01
2883 1 3.17850213360823695e+01
2884 1 3.72977868084963404e+01
2885 1 3.34135702705498758e+01
2886 1 2.40089013229851851e+01
2887 1 2.84219503826121489e+01
2888 1 2.79782217956587829e+01
2889 1 3.17295045297922798e+01
2890 1 2.94644220778788508e+01
2891 1 3.45964916023588103e+01
2892 1 3.08056913364449585e+01
2893 1 4.33740083893129977e+01
2894 1 4.29133156486095828e+01
2895 1 4.06937395514464413e+01
2896 1 3.84366041478970644e+01
2897 1 2.82563895523332995e+01
2898 1 3.69218847191507678e+01
2899 1 3.34603898460220677e+01
2900 1 3.30956858242085303e+01
2901 1 3.41029350538388627e+01
2902 1 3.48603176415753708e+01
2903 1 3.40825181978463121e+01
2904 1 3.91554451835814348e+01
2905 1 4.40208621216487828e+01
2906 1 3.64024347291639003e+01
2907 1 3.96302697383109575e+01
2908 1 4.93873261984947263e+01
2909 1 4.34168057903078903e+01
2910 1 4.87085283640454207e+01
2911 1 4.42363745593538269e+01
2912 1 4.55964673268463088e+01
2913 1 3.92096313657218332e+01
2914 1 4.24989384758171838e+01
2915 1 4.24991894056985871e+01
2916 1 3.99272099131159806e+01
2917 1 3.59994481650068465e+01
2918 1 3.22065232458023516e+01
2919 1 4.22950035100887973e+01
2920 1 4.90123039734998542e+01
2921 1 4.78152989443911238e+01
2922 1 3.84665624912474513e+01
2923 1 3.68119007242337020e+01
2924 1 3.70850287294022394e+01
2925 1 4.54946646792423124e+01
2926 1 5.33741890051790548e+01
2927 1 4.51231305877119482e+01
2928 1 4.01986984347498151e+01
2929 1 3.66137657930433775e+01
2930 1 4.29776884480437573e+01
2931 1 4.44378085542345360e+01
2932 1 4.69270084996659662e+01
2933 1 5.49352631929683852e+01
2934 1 3.92397219482684676e+01
2935 1 3.27584258559977570e+01
2936 1 3.34123183162704862e+01
2937 1 3.15864144197603771e+01
2938 1 3.58865173477393284e+01
2939 1 2.69277101852535523e+01
2940 1 4.34993492482894268e+01
2941 1 3.69822049147089089e+01
2942 1 3.92054068097102544e+01
2943 1 5.15591764378000761e+01
2944 1 3.66220842575158443e+01
2945 1 2.22124333522406090e+01
2946 1 1.65857812854882027e+01
2947 1 1.82769433734757349e+01
2948 1 1.85629272754234407e+01
2949 1 1.53900173561926348e+01
2950 1 1.21200940450293668e+01
2951 1 1.10319332849236513e+01
2952 1 1.09878557795769733e+01
2953 1 1.31947689596719329e+01
2954 1 1.70078611962155257e+01
2955 1 1.72807714398048446e+01
2956 1 1.53184179255620627e+01
2957 1 1.45619304397706202e+01
2958 1 1.39588613587966286e+01
2959 1 1.47211359881695074e+01
2960 1 1.40916752984676528e+01
2961 1 1.26716175765993899e+01
2962 1 1.30909714275515849e+01
2963 1 2.85932238964463039e+01
2964 1 2.71475233046864872e+01
2965 1 1.10237204137105227e+01
2966 1 1.09060673897947193e+01
2967 1 1.39639238079292269e+01
2968 1 1.18254454574030721e+01
2969 1 2.49238185407473338e+01
2970 1 1.30326795736967131e+01
2971 1 1.90883739141560405e+01
2972 1 2.52899678959679086e+01
2973 1 2.78821195309061380e+01
2974 1 2.92247861266670341e+01
2975 1 2.34379704951499015e+01
2976 1 2.18664430280714797e+01
2977 1 2.41404737174883088e+01
2978 1 2.74486932240717749e+01
2979 1 2.63667513309277375e+01
2980 1 2.73632134916959231e+01
2981 1 1.68501513884664185e+01
2982 1 1.89598174586234300e+01
2983 1 1.86869018953571100e+01
2984 1 2.01165630292794688e+01
2985 1 2.27917117035445180e+01
2986 1 4.12773448879630820e+01
2987 1 3.33927711681382817e+01
2988 1 3.56525674338570511e+01
2989 1 3.46009759595662274e+01
2990 1 3.27093283770041339e+01
2991 1 2.32374867356178569e+01
2992 1 1.34610405128341704e+01
2993 1 1.88947815935177630e+01
2994 1 1.46121387722952871e+01
2995 1 1.21284228391133446e+01
2996 1 3.63020273745065438e+01
2997 1 2.97419464066801282e+01
2998 1 3.67648859461325941e+01
2999 1 1.94324377637707677e+01
3000 1 3.29359434983041979e+01
3001 1 3.18640305254539342e+01
3002 1 4.87629987290012110e+01
3003 1 4.03966203851625636e+01
3004 1 4.94986648974011274e+01
3005 1 4.02833185383863466e+01
3006 1 3.74307879214546659e+01
3007 1 3.38444677184425515e+01
3008 1 3.27278963092184014e+01
3009 1 3.28343961474112049e+01
3010 1 3.48605924234191349e+01
3011 1 3.28618298114744931e+01
3012 1 1.91199371083907899e+01
3013 1 3.10853713227127777e+01
3014 1 1.22208498880925926e+01
3015 1 2.44236185269815564e+01
3016 1 1.39953348665992809e+01
3017 1 1.91044883475825635e+01
3018 1 3.26654589668335760e+01
3019 1 3.05216326202830608e+01
3020 1 3.36341302814448113e+01
3021 1 2.90612416262880373e+01
3022 1 2.34819622969270725e+01
3023 1 2.39092356813952591e+01
3024 1 2.57085745115252315e+01
3025 1 2.20882056011652033e+01
3026 1 2.74085770000954234e+01
3027 1 2.69432931481189648e+01
3028 1 3.07744324441934403e+01
3029 1 2.91007352877153664e+01
3030 1 3.14551207444441303e+01
3031 1 3.07477723402602017e+01
3032 1 3.07764894237849020e+01
3033 1 2.94763619217711508e+01
3034 1 3.08032155106741783e+01
3035 1 2.72184812013539421e+01
3036 1 2.91050612606035735e+01
3037 1 2.93590169615056951e+01
3038 1 3.10014465152400334e+01
3039 1 3.18942791038108489e+01
3040 1 3.32208224534191885e+01
3041 1 3.28335503981420445e+01
3042 1 3.31174859797852150e+01
3043 1 3.21017435002381148e+01
3044 1 3.24827839629408004e+01
3045 1 2.93355268284954676e+01
3046 1 3.05204822966381037e+01
3047 1 2.61767001276687559e+01
3048 1 2.61478909333618965e+01
3049 1 2.89481432329036146e+01
3050 1 3.13929092845671605e+01
3051 1 2.70664510436673531e+01
3052 1 2.88759856571372495e+01
3053 1 3.17775438216418280e+01
3054 1 3.29681295077886034e+01
3055 1 3.24562330245884993e+01
3056 1 3.24727549395121571e+01
3057 1 3.29568664102041353e+01
3058 1 3.30860474664384370e+01
3059 1 3.35361651715855729e+01
3060 1 3.34127729520354464e+01
3061 1 3.47469297069353900e+01
3062 1 3.62476915354562621e+01
3063 1 3.25506594284464370e+01
3064 1 3.43989170572326302e+01
3065 1 3.05836949966217233e+01
3066 1 3.28277448752060934e+01
3067 1 3.07390267876057948e+01
3068 1 3.24778071594069431e+01
3069 1 3.26228095781314451e+01
3070 1 3.29550282487457906e+01
3071 1 3.26861322271782768e+01
3072 1 3.61834988103266468e+01
3073 1 3.82801286281994280e+01
3074 1 3.52834572940842222e+01
3075 1 3.83123304369367830e+01
3076 1 3.68842493692209743e+01
3077 1 2.65290741684238540e+01
3078 1 3.30842503574176590e+01
3079 1 2.77907557914420629e+01
3080 1 2.96301346779376189e+01
3081 1 3.20219347305810018e+01
3082 1 3.19978343296695869e+01
3083 1 2.99185093013372025e+01
3084 1 2.82176975801155194e+01
3085 1 3.32023795485583193e+01
3086 1 1.74035347830942513e+01
3087 1 2.24895760136664329e+01
3088 1 3.07485585194430371e+01
3089 1 2.44449697164461313e+01
3090 1 3.07722984945196139e+01
3091 1 3.09071934127322763e+01
3092 1 3.45179499259750315e+01
3093 1 2.90342489165638931e+01
3094 1 2.55650486733484676e+01
3095 1 2.60811214695315599e+01
3096 1 1.15869801452371899e+01
3097 1 2.51898369821297976e+01
3098 1 2.52614100579873586e+01
3099 1 2.14028440394953883e+01
3100 1 3.43981093006365199e+01
3101 1 4.39017175222242244e+01
3102 1 4.92641236259035225e+01
3103 1 2.48980101466828536e+01
3104 1 2.61600997933929769e+01
3105 1 2.14895175891859544e+01
3106 1 2.40825258358427874e+01
3107 1 1.82612412358954188e+01
3108 1 1.38051606878165884e+01
3109 1 1.59968301106576192e+01
3110 1 1.47799164682615487e+01
3111 1 2.02308523386020980e+01
3112 1 1.81396407552338310e+01
3113 1 1.86878242327662925e+01
3114 1 2.37655601160807137e+01
3115 1 2.48672020511891319e+01
3116 1 1.99513804532868875e+01
3117 1 1.93429012123027597e+01
3118 1 2.11658780529380692e+01
3119 1 2.09912640163808852e+01
3120 1 1.84047825312305804e+01
3121 1 1.91825175337229652e+01
3122 1 2.01027929151265177e+01
3123 1 1.90794167055698942e+01
3124 1 2.05362914791406652e+01
3125 1 2.34524990393648061e+01
3126 1 2.11331843275413291e+01
3127 1 2.08899913480962525e+01
3128 1 1.66513017773515344e+01
3129 1 1.90084820133628831e+01
3130 1 1.85174490292044425e+01
3131 1 1.84016039655189942e+01
3132 1 1.77824649390665037e+01
3133 1 1.79355957329732441e+01
3134 1 1.75125863412131686e+01
3135 1 1.76854227514319966e+01
3136 1 1.89047676857027902e+01
3137 1 1.83916332345182383e+01
3138 1 1.93779794761868516e+01
3139 1 1.76344312970214396e+01
3140 1 1.78436815218520692e+01
3141 1 7.37010518989721319e+00
3142 1 2.37895020089837068e+01
3143 1 2.80960013014848151e+01
3144 1 3.50429370526243034e+01
3145 1 3.66336535658340239e+01
3146 1 2.91950680930604811e+01
3147 1 2.80543600075544752e+01
3148 1 3.93575798244900312e+01
3149 1 3.91829556685105445e+01
3150 1 3.91593287472722196e+01
3151 1 3.96925298523301322e+01
3152 1 3.92542340710374944e+01
3153 1 3.94541379329298394e+01
3154 1 3.55425452836902807e+01
3155 1 3.86296533132212758e+01
3156 1 3.85888915774097896e+01
3157 1 3.52021566011268732e+01
3158 1 3.66069732871017237e+01
3159 1 3.42354808462708959e+01
3160 1 3.76529104196741784e+01
3161 1 3.94406656854372599e+01
3162 1 3.88455287416798711e+01
3163 1 2.24509339191394304e+01
3164 1 2.81664744758599461e+01
3165 1 2.64407533934005770e+01
3166 1 3.11735058616077048e+01
3167 1 2.57795440179330839e+01
3168 1 2.77677841826930845e+01
3169 1 2.96026320643209964e+01
3170 1 2.85636131534724669e+01
3171 1 3.68153443813795107e+01
3172 1 3.37794140954329336e+01
3173 1 3.20528993037947387e+01
3174 1 3.43653279198883226e+01
3175 1 3.26040689105617005e+01
3176 1 3.14853906392506921e+01
3177 1 2.18243935903212112e+01
3178 1 2.74134611816489304e+01
3179 1 2.71009628078638869e+01
3180 1 2.72785252373610767e+01
3181 1 1.13477500501121558e+01
3182 1 1.85220913580743272e+01
3183 1 1.80174968366157131e+01
3184 1 3.87203732272521535e+01
3185 1 3.71224184347567316e+01
3186 1 3.41327346830039531e+01
3187 1 2.81746568496707290e+01
3188 1 2.69282960360730215e+01
3189 1 1.82502079967662283e+01
3190 1 1.85861437490060375e+01
3191 1 1.90144001866727557e+01
3192 1 3.38628077679410779e+01
3193 1 3.35272150895243186e+01
3194 1 3.54435937662812890e+01
3195 1 4.21350449392937847e+01
3196 1 4.07753375991437395e+01
3197 1 4.88814335676961136e+01
3198 1 4.02452484748673243e+01
3199 1 2.49216270082437852e+01
3200 1 2.43183642590809086e+01
3201 1 1.40060948912963337e+01
3202 1 1.40925956527853948e+01
3203 1 1.88706275049590673e+01
3204 1 1.88040755603088670e+01
3205 1 2.93806786113363714e+01
3206 1 2.86199072979216496e+01
3207 1 3.04114605720133362e+01
3208 1 3.09410218716302019e+01
3209 1 2.91687230829866415e+01
3210 1 2.79011705009638646e+01
3211 1 2.10997940548620271e+01
3212 1 3.03083276911266211e+01
3213 1 3.29413604463886571e+01
3214 1 2.69427549727416960e+01
3215 1 2.61999360973664217e+01
3216 1 2.93961546321595932e+01
3217 1 1.40101605427227422e+01
3218 1 2.63530155147007328e+01
3219 1 2.60986027923749013e+01
3220 1 2.64941017447891305e+01
3221 1 2.64939585850529156e+01
3222 1 2.62745185932511589e+01
3223 1 2.59898315144308398e+01
3224 1 3.66197836948405282e+01
3225 1 3.27324760116073676e+01
3226 1 3.18007487797180062e+01
3227 1 3.28692710953383838e+01
3228 1 3.11026359114826398e+01
3229 1 2.58188741837810909e+01
3230 1 2.18548617878119771e+01
3231 1 2.57700296831295752e+01
3232 1 2.64718491739680282e+01
3233 1 2.44650358206110994e+01
3234 1 2.84374858374719679e+01
3235 1 2.83140900449993325e+01
3236 1 2.65484765767371016e+01
3237 1 2.92465911321331831e+01
3238 1 2.62795917091140083e+01
3239 1 1.97351440307019139e+01
3240 1 1.98088775851850372e+01
3241 1 1.85965598345143590e+01
3242 1 6.29843482160154196e+01
3243 1 2.40293912145668429e+01
3244 1 2.54993058729712629e+01
3245 1 2.67075079888328517e+01
3246 1 2.54066578535425265e+01
3247 1 2.55455842173109247e+01
3248 1 2.99449080386421294e+01
3249 1 3.03725753688152231e+01
3250 1 2.30806277387883547e+01
3251 1 2.25421943594561895e+01
3252 1 1.94133546614606267e+01
3253 1 1.66769332377215385e+01
3254 1 1.54627989490038935e+01
3255 1 1.50622804729504054e+01
3256 1 1.59821024501766029e+01
3257 1 2.16486121572431465e+01
3258 1 1.11467044591377800e+01
3259 1 4.05420860674106862e+01
3260 1 1.23861263400128294e+01
3261 1 1.33651670949116070e+01
3262 1 1.26135087025968264e+01
3263 1 1.49776774483487163e+01
3264 1 1.24192267816612620e+01
3265 1 1.59871142539010709e+01
3266 1 1.02035453240804603e+01
3267 1 2.97116605487669823e+01
3268 1 2.44796334416106198e+01
3269 1 3.06777170062320685e+01
3270 1 3.26713389058840775e+01
3271 1 2.99122680521313633e+01
3272 1 2.85409049589937354e+01
3273 1 2.86204887470546474e+01
3274 1 2.81938516563280288e+01
3275 1 2.98494484976811663e+01
3276 1 3.00939776062484547e+01
3277 1 2.99760903794781619e+01
3278 1 2.69396498811586653e+01
3279 1 2.64937371678553788e+01
3280 1 2.68962721462917678e+01
3281 1 2.58006574073324231e+01
3282 1 2.80051970260965071e+01
3283 1 2.06991623682107928e+01
3284 1 2.40110499397438453e+01
3285 1 2.84191067731887301e+01
3286 1 1.97990397714235229e+01
3287 1 1.92609570358632674e+01
3288 1 2.39619890056481530e+01
3289 1 1.82391872467013343e+01
3290 1 1.96201403957384599e+01
3291 1 2.17382087713077539e+01
3292 1 1.68387330951438159e+01
3293 1 2.24404978035109863e+01
3294 1 1.42847333709323365e+01
3295 1 1.25695179824987200e+01
3296 1 1.87113419898804842e+01
3297 1 2.51271927824762251e+01
3298 1 2.25795181686535820e+01
3299 1 2.89661359335628532e+01
3300 1 4.00246012427656055e+01
3301 1 3.34586433619985328e+01
3302 1 3.44393915798736643e+01
3303 1 2.53847419680384228e+01
3304 1 1.70664976474088554e+01
3305 1 1.72006626659927058e+01
3306 1 2.71705099499695351e+01
3307 1 3.46891252833126131e+01
3308 1 3.04595047735427755e+01
3309 1 2.73970508675971054e+01
3310 1 2.68272711379543729e+01
3311 1 3.73791785968640511e+01
3312 1 3.87899437448541136e+01
3313 1 3.29452663819795148e+01
3314 1 2.47775475857042053e+01
3315 1 2.70477571449221479e+01
3316 1 3.14341000997084308e+01
3317 1 3.11636125154935186e+01
3318 1 3.12766987060306292e+01
3319 1 3.24720275053030178e+01
3320 1 3.21548806727801448e+01
3321 1 3.34180090706969750e+01
3322 1 3.44025405717124144e+01
3323 1 3.25493599104087750e+01
3324 1 3.37722005690723606e+01
3325 1 2.90491170035064563e+01
3326 1 2.90066541696319788e+01
3327 1 2.93340207247091662e+01
3328 1 3.44444133770280345e+01
3329 1 3.36374801402977894e+01
3330 1 2.70692880920492982e+01
3331 1 2.63874191693382940e+01
3332 1 3.68244977794709527e+01
3333 1 2.85986982755994106e+01
3334 1 3.25346247292842108e+01
3335 1 3.60561588240300281e+01
3336 1 3.65487975015452946e+01
3337 1 3.36601977243231119e+01
3338 1 2.71810351466226869e+01
3339 1 2.57123171939624697e+01
3340 1 2.29599828510111621e+01
3341 1 1.65612595823163069e+01
3342 1 2.01083167866992092e+01
3343 1 2.45924436136397269e+01
3344 1 2.88338342222006823e+01
3345 1 2.83633254513487181e+01
3346 1 2.43962332227195979e+01
3347 1 3.77097384966968363e+01
3348 1 1.44192618263636234e+01
3349 1 1.14612505317629569e+01
3350 1 1.07001968846715680e+01
3351 1 2.76488804291732428e+01
3352 1 2.54180473768916677e+01
3353 1 3.78692319243625164e+01
3354 1 2.86201903025999336e+01
3355 1 3.54065750069458076e+01
3356 1 2.37844181077729324e+01
3357 1 1.36729451474863701e+01
3358 1 1.44933857224923592e+01
3359 1 1.56622597959207148e+01
3360 1 1.28606044322025337e+01
3361 1 1.59970739840638068e+01
3362 1 1.67993024786541092e+01
3363 1 1.81546417919436607e+01
3364 1 1.96671471204645130e+01
3365 1 1.47322603195580939e+01
3366 1 1.51228784967176804e+01
3367 1 2.43316793437532226e+01
3368 1 2.26327074455306310e+01
3369 1 2.04440893602814633e+01
3370 1 2.56910964564973163e+01
3371 1 2.14595262850587787e+01
3372 1 2.56169425595480078e+01
3373 1 2.67546272790429640e+01
3374 1 2.63517119876541770e+01
3375 1 2.65981805609868829e+01
3376 1 2.80479213906326130e+01
3377 1 2.85325419966970415e+01
3378 1 2.02481336243323504e+01
3379 1 2.88794854772970062e+01
3380 1 2.46306064264739994e+01
3381 1 2.40477388646314871e+01
3382 1 2.75801645434649032e+01
3383 1 2.67912520411040944e+01
3384 1 3.11343702619300835e+01
3385 1 2.83768645518521545e+01
3386 1 2.93289508798253777e+01
3387 1 2.51456672172617886e+01
3388 1 1.92915028503059993e+01
3389 1 3.20983497703373217e+01
3390 1 2.30130919797334563e+01
3391 1 2.66617229425922240e+01
3392 1 2.67157370987294343e+01
3393 1 2.06864842206171886e+01
3394 1 1.97347964014120762e+01
3395 1 2.51210480812784169e+01
3396 1 3.25533052337965003e+01
3397 1 3.44815050350180883e+01
3398 1 2.82179132018552181e+01
3399 1 2.64686433266138827e+01
3400 1 2.70395777832088839e+01
3401 1 2.92635170074992708e+01
3402 1 3.01025756115602618e+01
3403 1 3.21744366458449136e+01
3404 1 3.13120836878460231e+01
3405 1 2.43146069518684733e+01
3406 1 2.53685587099650363e+01
3407 1 2.38769879454459826e+01
3408 1 2.28400142008460030e+01
3409 1 2.20365138534613259e+01
3410 1 2.62261923145021179e+01
3411 1 3.05910613210786906e+01
3412 1 2.88808081601067776e+01
3413 1 2.87805302466764097e+01
3414 1 2.66608897004516479e+01
3415 1 2.69658304365627437e+01
3416 1 3.12575630760373677e+01
3417 1 3.43498197004104071e+01
3418 1 3.26425698176977050e+01
3419 1 3.41544069048402008e+01
3420 1 3.60111462034211982e+01
3421 1 3.62237923606948797e+01
3422 1 3.69905213901158092e+01
3423 1 3.52871521059992830e+01
3424 1 3.33248905598803660e+01
3425 1 2.90076159489846503e+01
3426 1 2.82674080141936450e+01
3427 1 2.93654123007979599e+01
3428 1 2.22073690338239942e+01
3429 1 2.69254131950814362e+01
3430 1 2.44477568933967113e+01
3431 1 2.82374112565989535e+01
3432 1 2.09977279952100311e+01
3433 1 3.59458554374699659e+01
3434 1 3.49169109740641943e+01
3435 1 3.57278922779602794e+01
3436 1 3.50017917147679753e+01
3437 1 3.24199262974030873e+01
3438 1 2.77732352803909315e+01
3439 1 3.14275353106743545e+01
3440 1 1.17922577541049911e+01
3441 1 1.92570775365853919e+01
3442 1 1.42750563547864289e+01
3443 1 1.02897468183362726e+01
3444 1 1.20456806218076640e+01
3445 1 1.08701908769649851e+01
3446 1 1.67410086540731733e+01
3447 1 1.71787016319903536e+01
3448 1 3.63040868025434094e+01
3449 1 1.58577091366934351e+01
3450 1 1.37959393919303253e+01
3451 1 1.85157515158834229e+01
3452 1 1.82428375948819728e+01
3453 1 1.75823199985961729e+01
3454 1 1.62470405589337297e+01
3455 1 1.77073898474954525e+01
3456 1 1.87882078084453923e+01
3457 1 1.92715964764673906e+01
3458 1 1.65559843140630143e+01
3459 1 1.83044242102540942e+01
3460 1 1.55546033077106998e+01
3461 1 1.61847991566271006e+01
3462 1 1.58684938441036536e+01
3463 1 1.60981170954566366e+01
3464 1 2.15662061598733885e+01
3465 1 2.00690578680130649e+01
3466 1 1.81676849154872748e+01
3467 1 1.62833891345646542e+01
3468 1 1.79259123357707217e+01
3469 1 2.38778858690042348e+01
3470 1 2.63720123956333374e+01
3471 1 1.16808011166177756e+01
3472 1 1.29484668640549199e+01
3473 1 9.69650329705984504e+00
3474 1 1.48004734957087276e+01
3475 1 1.81731168654178177e+01
3476 1 1.75285179562070574e+01
3477 1 1.68672876345855229e+01
3478 1 3.40095329168890927e+01
3479 1 3.60853632023043644e+01
3480 1 2.73765340202763561e+01
3481 1 3.46518114852274337e+01
3482 1 3.19296424155991581e+01
3483 1 3.28502202316102441e+01
3484 1 3.30288921570429466e+01
3485 1 3.00851585003224820e+01
3486 1 2.91734533045186772e+01
3487 1 3.20102229470602779e+01
3488 1 3.38969041407550122e+01
3489 1 3.30251058123652399e+01
3490 1 2.64540378211749143e+01
3491 1 2.93241325121017979e+01
3492 1 2.76744121476619895e+01
3493 1 2.69493463962878117e+01
3494 1 2.76239851984199341e+01
3495 1 2.87255761720765150e+01
3496 1 3.35316203652492604e+01
3497 1 2.70619551814332908e+01
3498 1 2.08311067469697555e+01
3499 1 2.73637335803199093e+01
3500 1 2.44314797202777001e+01
3501 1 2.01922947772682022e+01
3502 1 4.93041633877970042e+01
3503 1 4.44211378811003073e+01
3504 1 4.31074805962146996e+01
3505 1 3.70449735886345408e+01
3506 1 3.56961480112448655e+01
3507 1 2.41419311609732965e+01
3508 1 2.05617809191411993e+01
3509 1 2.39507890601289013e+01
3510 1 2.05297519273616196e+01
3511 1 1.75301903082568984e+01
3512 1 1.83233077171345506e+01
3513 1 2.45264637939875385e+01
3514 1 2.12528658153407584e+01
3515 1 2.23624979427611450e+01
3516 1 2.77299478017140544e+01
3517 1 3.59323898417519629e+01
3518 1 3.56834488723609553e+01
3519 1 4.38490227205171337e+01
3520 1 4.80629577412550404e+01
3521 1 4.56775263060853263e+01
3522 1 4.46806371607736565e+01
3523 1 4.13459564283229142e+01
3524 1 4.48253897597894451e+01
3525 1 2.85577722440480137e+01
3526 1 4.19934290468901352e+01
3527 1 3.91251948438221149e+01
3528 1 3.27631198094723501e+01
3529 1 2.59255860959907984e+01
3530 1 2.43460919848995481e+01
3531 1 2.76812541154952356e+01
3532 1 3.36812948436690007e+01
3533 1 3.49569598178938961e+01
3534 1 3.34323929760735510e+01
3535 1 4.59669914453366744e+01
3536 1 4.73899760324485939e+01
3537 1 4.17448671087286769e+01
3538 1 5.60575038692361289e+01
3539 1 5.36105786212472708e+01
3540 1 4.51180932286212553e+01
3541 1 3.55099852203005213e+01
3542 1 2.80420749196013475e+01
3543 1 4.43119303718241753e+01
3544 1 4.93785661087195180e+01
3545 1 2.41256762899867780e+01
3546 1 2.21521459329089403e+01
3547 1 1.43593689885834372e+01
3548 1 1.43587555621517122e+01
3549 1 2.10976398525002438e+01
3550 1 1.86653262175040489e+01
3551 1 1.87267339949294254e+01
3552 1 1.59731680000252165e+01
3553 1 1.36472165541074570e+01
3554 1 1.43706852053007292e+01
3555 1 1.34144298553820587e+01
3556 1 2.73807477751907342e+01
3557 1 2.72263411853794288e+01
3558 1 1.14774148592210050e+01
3559 1 1.47522934673846233e+01
3560 1 1.78533652412194357e+01
3561 1 2.44298133441792231e+01
3562 1 2.27295125595596197e+01
3563 1 2.63723531119960946e+01
3564 1 2.87976268142688809e+01
3565 1 1.58221982094128748e+01
3566 1 3.75785683185576858e+01
3567 1 3.59460538066281785e+01
3568 1 3.53225673915016216e+01
3569 1 3.89001799786055926e+01
3570 1 3.04049926372050372e+01
3571 1 4.69155749393421360e+01
3572 1 5.23427101828611114e+01
3573 1 4.58993157258873978e+01
3574 1 3.46449473053557426e+01
3575 1 3.56096507925014336e+01
3576 1 3.27986107542406629e+01
3577 1 3.29408823017826009e+01
3578 1 3.27696547849120918e+01
3579 1 3.33170066445547590e+01
3580 1 1.51200175206936329e+01
3581 1 2.94684394933625882e+01
3582 1 3.07475461543836879e+01
3583 1 3.38377967617306084e+01
3584 1 2.27019561396592415e+01
3585 1 2.55096722549015453e+01
3586 1 2.83416052405130721e+01
3587 1 3.06303144238376959e+01
3588 1 3.03186642640256885e+01
3589 1 2.88639514410143541e+01
3590 1 3.33080698906519785e+01
3591 1 3.27043623622577257e+01
3592 1 3.24732674691967844e+01
3593 1 3.24362020288523496e+01
3594 1 3.17272359608337347e+01
3595 1 3.29019051406632315e+01
3596 1 2.75493147891556838e+01
3597 1 2.83793149636472322e+01
3598 1 2.62486854392651168e+01
3599 1 2.81903077873253167e+01
3600 1 3.03208347201546005e+01
3601 1 3.15061283734490516e+01
3602 1 3.04658595445219831e+01
3603 1 2.42020801177884159e+01
3604 1 3.12089881049382747e+01
3605 1 3.32175560695487633e+01
3606 1 3.26712890417305530e+01
3607 1 3.24160169990870131e+01
3608 1 3.48319644936599175e+01
3609 1 3.57346463092320832e+01
3610 1 3.19891856621567072e+01
3611 1 2.97032789047147538e+01
3612 1 3.27349899003547407e+01
3613 1 3.24719519497416371e+01
3614 1 3.89695316506941296e+01
3615 1 3.80698717821214601e+01
3616 1 3.68986669901736661e+01
3617 1 3.08846234920303253e+01
3618 1 2.33885354450291310e+01
3619 1 3.03864104062973546e+01
3620 1 3.06886155464617545e+01
3621 1 1.84730308417537437e+01
3622 1 1.87532134648539603e+01
3623 1 2.14854417147835797e+01
3624 1 3.04495197742811499e+01
3625 1 3.26867596010956518e+01
3626 1 2.15304440336506637e+01
3627 1 1.74380230681050072e+01
3628 1 1.91851460342439317e+01
3629 1 2.82578428969504927e+01
3630 1 1.93687664675605156e+01
3631 1 2.11684300281731090e+01
3632 1 1.68222571787151303e+01
3633 1 1.40080440354311726e+01
3634 1 1.79924368834048600e+01
3635 1 2.42529170592089436e+01
3636 1 1.87274049427596694e+01
3637 1 1.78046708183531948e+01
3638 1 1.92723883103546569e+01
3639 1 2.22560971738912805e+01
3640 1 2.09380954293905646e+01
3641 1 1.75655346731860789e+01
3642 1 1.75694964324055682e+01
3643 1 1.76704670115469540e+01
3644 1 1.95976017422913351e+01
3645 1 1.76692914321216499e+01
3646 1 2.38555245369110018e+01
3647 1 2.60148889011464171e+01
3648 1 3.01631392581303395e+01
3649 1 3.44848697696882525e+01
3650 1 2.64429106225366475e+01
3651 1 2.96254548945688896e+01
3652 1 3.91468069306144670e+01
3653 1 3.83827953015332639e+01
3654 1 3.96325727110188879e+01
3655 1 3.85048502475288004e+01
3656 1 3.62400902430876855e+01
3657 1 3.74168859334992163e+01
3658 1 3.57930549769576132e+01
3659 1 3.91217878064962008e+01
3660 1 3.91854525381011527e+01
3661 1 3.77104065954170409e+01
3662 1 2.48409058060109835e+01
3663 1 3.03992594765023227e+01
3664 1 2.94809896628505719e+01
3665 1 2.47843313128099787e+01
3666 1 2.65371170329172053e+01
3667 1 3.02914892801504152e+01
3668 1 2.98297505982491558e+01
3669 1 2.67025573152221938e+01
3670 1 1.14776188916996063e+01
3671 1 1.97678626571200340e+01
3672 1 3.38984083223222683e+01
3673 1 2.54555986433272814e+01
3674 1 8.82302972063153668e+00
3675 1 3.31636039055383307e+01
3676 1 3.69473214095159292e+01
3677 1 4.07672974362144487e+01
3678 1 4.35533701980661476e+01
3679 1 3.20777447791771877e+01
3680 1 2.36451766555239971e+01
3681 1 4.42832712358687033e+01
3682 1 1.56357930730307881e+01
3683 1 2.94493500341450982e+01
3684 1 1.94377004713940487e+01
3685 1 3.35922465119946807e+01
3686 1 2.63010116560545413e+01
3687 1 2.61818425340941658e+01
3688 1 2.59605593861578399e+01
3689 1 2.61474762906679743e+01
3690 1 2.87347380721235766e+01
3691 1 2.74805835150655078e+01
3692 1 2.63607863057486327e+01
3693 1 2.67702705142740029e+01
3694 1 2.25147026811035254e+01
3695 1 2.31919230497466238e+01
3696 1 2.62925747931882157e+01
3697 1 2.24461882404896080e+01
3698 1 2.53798864683002279e+01
3699 1 2.61980395351725512e+01
3700 1 2.52474732333530874e+01
3701 1 2.47070349141789478e+01
3702 1 2.97720315177764512e+01
3703 1 2.13444803310955891e+01
3704 1 2.47671798065342088e+01
3705 1 3.10495688571255108e+01
3706 1 3.01618298494293882e+01
3707 1 2.55079709439918219e+01
3708 1 2.81835512708731528e+01
3709 1 1.95249559423023484e+01
3710 1 2.58272262587285653e+01
3711 1 1.73993683960512442e+01
3712 1 1.56291921117505179e+01
3713 1 3.83778044506516309e+01
3714 1 3.53201733635791015e+01
3715 1 3.10987365732447252e+01
3716 1 3.83082177088383133e+01
3717 1 3.01942746884507933e+01
3718 1 3.45296829658357680e+01
3719 1 2.75635571252188321e+01
3720 1 2.50824934687609655e+01
3721 1 2.44400810715805932e+01
3722 1 2.73945223440287791e+01
3723 1 3.06808250666317157e+01
3724 1 3.31441064183775822e+01
3725 1 3.45737547045318365e+01
3726 1 2.98760021435827028e+01
3727 1 3.04833166669402083e+01
3728 1 2.60748440447958316e+01
3729 1 2.26079331520424525e+01
3730 1 3.19501253214399945e+01
3731 1 2.49274422643352906e+01
3732 1 3.74921226297409689e+01
3733 1 1.64745988489681174e+01
3734 1 1.21707645614672515e+01
3735 1 1.13731148664393587e+01
3736 1 1.28031967271503806e+01
3737 1 2.04060202604687291e+01
3738 1 2.83357395135541807e+01
3739 1 2.26547277383875496e+01
3740 1 2.99581501774876742e+01
3741 1 3.43004466928235416e+01
3742 1 2.31568161642597481e+01
3743 1 2.43683947558991854e+01
3744 1 1.88908726455768203e+01
3745 1 3.03440175006609536e+01
3746 1 2.70423355663843594e+01
3747 1 2.82412552270626804e+01
3748 1 2.81315142000775609e+01
3749 1 3.04994315805031384e+01
3750 1 2.66254719376482996e+01
3751 1 2.56729750177814395e+01
3752 1 2.20007648515160135e+01
3753 1 2.29231017192288853e+01
3754 1 2.63550144811911906e+01
3755 1 3.03841931280535213e+01
3756 1 2.68041726680754486e+01
3757 1 2.78114561078195379e+01
3758 1 3.61318003290555367e+01
3759 1 3.10477967666560168e+01
3760 1 2.08520489162696343e+01
3761 1 3.50447280817601978e+01
3762 1 3.13437023927219798e+01
3763 1 1.22892112193276795e+01
3764 1 1.54635293097778774e+01
3765 1 1.17298483927346524e+01
3766 1 1.54137016085475462e+01
3767 1 1.85009938442886153e+01
3768 1 1.72448905874135683e+01
3769 1 1.67565419066537906e+01
3770 1 1.83017562626453874e+01
3771 1 1.90950914340293529e+01
3772 1 1.94254712358040784e+01
3773 1 1.59517244804703555e+01
3774 1 3.39020958994721440e+01
3775 1 2.81312993212058231e+01
3776 1 3.11494249743641625e+01
3777 1 2.68316218406895004e+01
3778 1 3.01049774231657743e+01
3779 1 1.79193811610011480e+01
3780 1 4.43002815172345521e+01
3781 1 4.63634305171010652e+01
3782 1 3.35737886612610836e+01
3783 1 3.25709173735002864e+01
3784 1 3.17904214539029084e+01
3785 1 3.22894676330510748e+01
3786 1 4.59802817977066596e+01
3787 1 4.36531375555090477e+01
3788 1 1.36397210034899921e+01
3789 1 1.92256054872187043e+01
3790 1 1.30606703360631435e+01
3791 1 2.80382630534922477e+01
3792 1 1.11905551938180974e+01
3793 1 1.12008008710861890e+01
3794 1 1.53101347363544651e+01
3795 1 1.42411264070529651e+01
3796 1 2.00838375060332410e+01
3797 1 1.70552714149995239e+01
3798 1 5.00085252205088509e+01
3799 1 3.22439146617739212e+01
3800 1 2.44793000552949103e+01
3801 1 3.24962826350713385e+01
3802 1 3.41295828374685684e+01
3803 1 3.24854041945303251e+01
3804 1 2.55216607188611349e+01
3805 1 2.73151634792927815e+01
3806 1 2.95892200319124186e+01
3807 1 3.30714395102072203e+01
3808 1 3.30436464733495185e+01
3809 1 3.13915296415795346e+01
3810 1 3.29772542756029168e+01
3811 1 3.40682887827282030e+01
3812 1 3.17864872914128469e+01
3813 1 4.21512765306815140e+01
3814 1 2.75742129658259181e+01
3815 1 3.11994288017055261e+01
3816 1 1.45135026151055690e+01
3817 1 1.87207058359523089e+01
3818 1 2.00069606764693795e+01
3819 1 2.21999204927445781e+01
3820 1 1.78917937398127584e+01
3821 1 1.97506618010319279e+01
3822 1 1.80304053882130439e+01
3823 1 1.86478496551499227e+01
3824 1 1.82246956521874672e+01
3825 1 3.93650606418785145e+01
3826 1 3.85672515025439040e+01
3827 1 3.78196309004200160e+01
3828 1 3.87622571997517014e+01
3829 1 3.73770023385199863e+01
3830 1 3.81821421515380663e+01
3831 1 3.85597309330319007e+01
3832 1 2.71715244177138935e+01
3833 1 2.74327209511890793e+01
3834 1 3.35337537696149752e+01
3835 1 2.67308762039873109e+01
3836 1 3.05119098665371666e+01
3837 1 3.09791867912940724e+01
3838 1 2.96317947571541787e+01
3839 1 4.27873179673068122e+01
3840 1 2.26805148931142924e+01
3841 1 2.42804497575605858e+01
3842 1 2.15139381616417538e+01
3843 1 2.97774677013474296e+01
3844 1 2.98002155652463792e+01
3845 1 2.58329918749529455e+01
3846 1 1.61265571717287450e+01
3847 1 4.08453927625955160e+01
3848 1 2.82591343238040160e+01
3849 1 3.20416998216961488e+01
3850 1 2.95514874238057175e+01
3851 1 3.27238492616668992e+01
3852 1 2.41062515034737075e+01
3853 1 2.78815445873194143e+01
3854 1 3.85564883778799867e+01
3855 1 1.32866501798885821e+01
3856 1 3.48694633893554453e+01
3857 1 2.31853752804692554e+01
3858 1 2.32528332899696260e+01
3859 1 1.77740210064265085e+01
3860 1 3.12203040114864052e+01
3861 1 3.56651057854166709e+01
3862 1 2.71420653234322984e+01
3863 1 2.48958621529352158e+01
3864 1 1.68906112289348407e+01
3865 1 1.79194208517130775e+01
3866 1 1.87383102710447531e+01
3867 1 2.60126213202072165e+01
3868 1 3.01725233980284671e+01
3869 1 3.24075082362930047e+01
3870 1 2.05154859060788546e+01
3871 1 2.65602810950538135e+01
3872 1 3.41257959675381741e+01
3873 1 2.94582130475868667e+01
3874 1 4.10406354830634896e+01
3875 1 2.46872580690929055e+01
3876 1 1.96795780953610731e+01
3877 1 2.10589608435279949e+01
3878 1 1.86558283213651066e+01
3879 1 3.75972627745664454e+01
3880 1 3.35732277767331979e+01
3881 1 3.40967879471779156e+01
3882 1 2.60981226729604820e+01
3883 1 2.43948697478763918e+01
3884 1 2.83964631625027302e+01
3885 1 9.72481728250909327e+00
3886 1 6.84821823408042007e+01
3887 1 8.92382294043160229e+00
3888 1 2.81906988379605501e+01
3889 1 7.09535599996304356e+00
3890 1 3.11375274432189180e+01
3891 1 1.04503673111327675e+01
3892 1 5.20852258134551676e+01
3893 1 1.75719617056394348e+01
3894 1 1.53546127910901973e+01
3895 1 1.83528170551935936e+01
3896 1 4.85304217179861510e+01
3897 1 3.11631752789056620e+01
3898 1 2.83228763194171016e+01
3899 1 1.82344169496228936e+01
3900 1 4.73069740847948417e+00
3901 1 1.76167100957276972e+01
3902 1 1.88321530980763114e+01
3903 1 2.02120003321600521e+01
3904 1 1.48708512666192494e+01
3905 1 9.89271074374342341e+00
3906 1 1.94909701380080413e+01
3907 1 1.76633193066763354e+01
3908 1 2.10260861754143349e+01
3909 1 1.09029579144476045e+01
3910 1 1.53944900780469709e+01
3911 1 1.60451577526766300e+01
3912 1 1.68685480406125272e+01
3913 1 5.85775897194541173e+01
3914 1 1.78934760552282768e+01
3915 1 3.11839248252539782e+01
3916 1 3.20591615681255107e+01
3917 1 1.85818113099671685e+01
3918 1 1.08784545707160731e+01
3919 1 1.14414724103512153e+01
3920 1 1.65021298826595419e+01
3921 1 3.09941658548978758e+01
3922 1 2.82433047397147803e+01
3923 1 3.28994505066977041e+01
3924 1 2.10061552796335071e+01
3925 1 2.22081369965169628e+01
3926 1 2.26326906409879101e+01
3927 1 2.46590144066226458e+01
3928 1 1.69416123072379037e+01
3929 1 1.65057388095758775e+01
3930 1 1.72581765667035505e+01
3931 1 1.68920220189107937e+01
3932 1 1.73632564149986841e+01
3933 1 3.71214824679283097e+01
3934 1 2.29467555162521890e+01
3935 1 2.35152195396844803e+01
3936 1 5.27179617271977889e+01
3937 1 4.99302803188225468e+01
3938 1 3.70399538268256734e+01
3939 1 3.21279164089248184e+01
3940 1 1.37908371774449527e+01
3941 1 1.42116995620868973e+01
3942 1 1.32086246289670637e+01
3943 1 1.26779932580683532e+01
3944 1 3.00059794900664372e+01
3945 1 2.58662811413103455e+01
3946 1 2.00989841864217063e+01
3947 1 1.75121445099118027e+01
3948 1 3.77248447952853212e+01
3949 1 3.71456257545079751e+01
3950 1 2.67478276828223365e+01
3951 1 1.15758434890282746e+01
3952 1 3.20594464716987630e+01
3953 1 3.26543766785959377e+01
3954 1 1.96909491593021109e+01
3955 1 2.74996594021917815e+01
3956 1 2.47962984668166939e+01
3957 1 3.11984791438190783e+01
3958 1 3.06803281548340721e+01
3959 1 2.97494014489462550e+01
3960 1 3.02493058809445827e+01
3961 1 1.96523898025539125e+01
3962 1 1.98103187286835372e+01
3963 1 1.83836426563973170e+01
3964 1 2.09152806288871851e+01
3965 1 2.05991475664494104e+01
3966 1 2.36039420923651200e+01
3967 1 2.31710791142202090e+01
3968 1 1.83252168033699299e+01
3969 1 2.55065833128346640e+01
3970 1 1.37616516296844207e+01
3971 1 1.51048443856592822e+01
3972 1 4.97215605400666476e+01
3973 1 4.45068745176998917e+01
3974 1 3.38287241507632004e+01
3975 1 3.19961619862823561e+01
3976 1 3.14691410677691863e+01
3977 1 2.99207723944911379e+01
3978 1 2.68290703840493130e+01
3979 1 2.18594984590442003e+01
3980 1 3.13940837360986862e+01
3981 1 2.92403277544075628e+01
3982 1 3.24100911230408002e+01
3983 1 2.70991754482398797e+01
3984 1 2.09027777272985134e+01
3985 1 2.79047614136341551e+01
3986 1 2.69798784876087225e+01
3987 1 3.57046951237366343e+01
3988 1 1.57656328623599400e+01
3989 1 3.26309729485831852e+01
3990 1 3.33932305119843704e+01
3991 1 3.18404200667841053e+01
3992 1 2.64044272583605810e+01
3993 1 3.80029609806247564e+01
3994 1 2.02010921600124824e+01
3995 1 2.35811894223195786e+01
3996 1 1.83756979826499318e+01
3997 1 2.77339230177202225e+01
3998 1 1.65016276391535222e+01
3999 1 2.55208436697375447e+01
4000 1 2.74321758699130100e+01
4001 1 3.33120780687180940e+01
4002 1 3.13561072229823381e+01
4003 1 3.47529778021894344e+01
4004 1 2.53261097941695859e+01
4005 1 1.37669013408966396e+01
4006 1 3.15170264110095815e+01
4007 1 1.06738728306534654e+01
4008 1 2.07474746949808946e+01
4009 1 3.21963094091858295e+01
4010 1 2.38030387244081751e+01
4011 1 3.60383981709471541e+01
4012 1 3.28328870930426433e+01
4013 1 1.80196533120412674e+01
4014 1 2.74055082853147596e+01
4015 1 3.82221883606567729e+01
4016 1 1.80581851174001962e+01
4017 1 2.07533047002612250e+01
4018 1 1.26160116983636499e+01
4019 1 2.77571799925887142e+01
4020 1 8.21502379095376156e+00
4021 1 1.42748826536346556e+01
4022 1 1.61511963901146842e+01
4023 1 7.97282353066202187e+00
4024 1 1.67421812003116948e+01
4025 1 1.09693967876790630e+01
4026 1 5.04367111540703306e+00
4027 1 1.96768048779534617e+01
4028 1 1.05651677193224351e+01
4029 1 1.89937674493928306e+01
4030 1 1.56959212917691406e+01
4031 1 2.27848277235289949e+01
4032 1 2.01285359005937394e+01
4033 1 1.09057646175205800e+01
4034 1 2.59107209297391599e+01
4035 1 2.62706457240225006e+01
4036 1 2.59067743974941074e+01
4037 1 1.90006868486502931e+01
4038 1 1.78413187804805418e+01
4039 1 2.54957154942356681e+01
4040 1 2.57870933359788026e+01
4041 1 3.99135848013867047e+01
4042 1 2.21136787361848022e+01
4043 1 2.26470693035726214e+01
4044 1 1.77138049288511432e+01
4045 1 3.03567902940447638e+01
4046 1 3.57748369771693859e+01
4047 1 5.49745918825487649e+01
4048 1 2.96156912336679099e+01
4049 1 4.69056238021323821e+01
4050 1 3.67286406331405857e+01
4051 1 3.66582949868211969e+01
4052 1 3.60956396917832194e+01
4053 1 3.82618155355331240e+01
4054 1 3.69905633277208068e+01
4055 1 3.87491700597330180e+01
4056 1 4.20969104080114107e+01
4057 1 2.77726672214138262e+01
4058 1 2.88644467950009087e+01
4059 1 1.54401921075621829e+01
4060 1 3.30033867884570569e+01
4061 1 3.36093240392748243e+01
4062 1 3.13303257913829967e+01
4063 1 1.41098643132292096e+01
4064 1 1.35551840879454240e+01
4065 1 3.11912606355495505e+01
4066 1 1.70306540118403618e+01
4067 1 1.79292237879941858e+01
4068 1 2.72228238775801152e+01
4069 1 1.97233355397480778e+01
4070 1 1.74358435708114996e+01
4071 1 3.00433747463689365e+01
4072 1 1.97375313012069000e+01
4073 1 1.18965266708179307e+01
4074 1 3.12600575534901601e+01
4075 1 2.63454342034603606e+01
4076 1 1.22691091767555545e+01
4077 1 1.83919450537203346e+01
4078 1 2.83812272671535339e+01
4079 1 2.16323076226999866e+01
4080 1 3.22911677627671807e+01
4081 1 3.80905102470704122e+01
4082 1 3.83944154260041728e+01
4083 1 3.57117137640576772e+01
4084 1 3.41526434039362385e+01
4085 1 4.04866678525546746e+01
4086 1 4.10068691405381642e+01
4087 1 4.35841451264018076e+01
4088 1 3.23315076833764294e+01
4089 1 4.17911194328424216e+01
4090 1 4.70448506126936437e+01
4091 1 3.83413917366284380e+01
4092 1 3.94163309495275200e+01
4093 1 3.87137121017934973e+01
4094 1 1.25006160161138418e+01
4095 1 1.51555911072092275e+01
4096 1 1.83435813536763668e+01
4097 1 1.76417824043416935e+01
4098 1 2.60409761792465879e+01
4099 1 2.50294739209106503e+01
4100 1 2.60603549587633374e+01
4101 1 2.62292637730080500e+01
4102 1 2.94093999482564037e+01
4103 1 2.89525798597012205e+01
4104 1 2.69717737588919633e+01
4105 1 3.30617746982806295e+01
4106 1 2.62690668275186638e+01
4107 1 2.50884877387042451e+01
4108 1 4.34401296305658491e+01
4109 1 4.68211103111778897e+01
4110 1 4.82533374523370284e+01
4111 1 4.75776683627962811e+01
4112 1 2.65463026844772294e+01
4113 1 2.79934372802172504e+01
4114 1 2.77538926154892458e+01
4115 1 3.27682618843500677e+01
4116 1 3.28072227390538558e+01
4117 1 3.27339884071018261e+01
4118 1 3.26545391315763212e+01
4119 1 3.27879295253202372e+01
4120 1 3.57125345120832094e+01
4121 1 4.60972681314192911e+01
4122 1 2.15790434151140147e+01
4123 1 2.22234462973994589e+01
4124 1 3.48558918633497683e+01
4125 1 4.65091301177503453e+01
4126 1 1.47457088353427963e+01
4127 1 3.03217018539752878e+01
4128 1 1.98154264275559946e+01
4129 1 3.99936017757615758e+01
4130 1 4.15899866891689030e+01
4131 1 2.20539299738115027e+01
4132 1 2.71891887451609939e+01
4133 1 3.26719920434441491e+01
4134 1 4.04185898973986397e+01
4135 1 2.55785906389494144e+01
4136 1 2.76035075404524619e+01
4137 1 1.64043622674968823e+01
4138 1 2.31481348001876661e+01
4139 1 1.61371463637108157e+01
4140 1 1.19935043717676688e+01
4141 1 1.31448271659527727e+01
4142 1 3.10935315908816428e+01
4143 1 4.23833725789930753e+01
4144 1 4.05610656458312349e+01
4145 1 3.73536870939206693e+01
4146 1 3.52633550743159816e+01
4147 1 1.71175802558014283e+01
4148 1 2.39290422651356174e+01
4149 1 2.38255351460015490e+01
4150 1 4.15058835478792503e+01
4151 1 3.42071111421926659e+01
4152 1 3.46100385335613723e+01
4153 1 3.50192456105185954e+01
4154 1 3.33664627340434308e+01
4155 1 3.34053059868881164e+01
4156 1 4.32122894702427871e+01
4157 1 1.92815444595171215e+01
4158 1 2.90931421549283620e+01
4159 1 3.82253016609496683e+01
4160 1 2.68957446851438249e+01
4161 1 3.86643035979893810e+01
4162 1 4.17278423425997431e+01
4163 1 1.75863872417568921e+01
4164 1 1.43288185607778029e+01
4165 1 1.71145864572096222e+01
4166 1 1.91985874744284004e+01
4167 1 3.11248217836498462e+01
4168 1 1.20264986705091328e+01
4169 1 1.92774638572757411e+01
4170 1 1.89829091592353478e+01
4171 1 2.74362189796976885e+00
4172 1 8.43501118757016677e+00
4173 1 6.40123607217545221e+00
4174 1 6.93659021108120921e+00
4175 1 1.52578505917601568e+01
