%%MatrixMarket matrix coordinate  real general
4175 1 4175
1 1 2.20717664487990994e+01
2 1 2.91151001095277771e+01
3 1 4.21633472205660880e+01
4 1 7.03532648543431094e+01
5 1 9.71838563102455453e+01
6 1 3.71188323727123262e+01
7 1 -1.70596261633486756e+03
8 1 -1.49204113533931286e+03
9 1 1.99060952090287145e+02
10 1 1.13660165751127252e+02
11 1 -5.38413007584310321e+02
12 1 -1.76398748774925912e+03
13 1 -2.98548668253561391e+03
14 1 -2.53477968725425444e+03
15 1 4.90446280199375792e+02
16 1 1.92021133002004512e+03
17 1 -8.63719834840929138e+02
18 1 -1.60338802052934966e+02
19 1 4.62538875434625879e+02
20 1 3.35080069403598429e+02
21 1 2.95043982664903695e+02
22 1 2.13961404614634688e+02
23 1 -1.32116831948055705e+02
24 1 -7.09090848023958756e+02
25 1 -1.23865216094764764e+03
26 1 -1.19458806779941756e+03
27 1 -6.10609183968841307e+02
28 1 -3.63001718830929462e+02
29 1 -1.09191045220412676e+02
30 1 5.32683176055265221e+02
31 1 5.49757002936859635e+02
32 1 5.05177362481114130e+02
33 1 5.04739789898917934e+02
34 1 4.99370966535921866e+02
35 1 4.84058824684682008e+02
36 1 3.72811956677198339e+02
37 1 2.11002557312830561e+02
38 1 9.91997592785572238e+01
39 1 8.36906641737771508e+01
40 1 8.32026578626143163e+01
41 1 8.31842322294611733e+01
42 1 8.31689696010707422e+01
43 1 8.30990244149226669e+01
44 1 6.51596584535767960e+01
45 1 4.26984993138319808e+01
46 1 1.91222742035540740e+01
47 1 -6.76480821215547365e+01
48 1 -9.11643428414240162e+01
49 1 3.55466109839609912e+00
50 1 2.37995930959040223e+01
51 1 6.32971331935220416e+00
52 1 -7.80840704592803636e+00
53 1 -9.09717273219997224e+00
54 1 -1.00116424948738558e+01
55 1 -9.83563971712768925e+00
56 1 -9.80372294903340169e+00
57 1 -9.78460733723665932e+00
58 1 -9.41283395096573017e+00
59 1 -8.25758110503105414e+00
60 1 -6.19039066066747612e+00
61 1 -9.89130383488617371e-01
62 1 5.15039033148241199e+00
63 1 8.68739600159541681e+00
64 1 1.13115259683425489e+01
65 1 1.55531339457583364e+01
66 1 1.77016798476965711e+01
67 1 2.42726317885371259e+01
68 1 2.55685170791531036e+01
69 1 3.30962095830635690e+01
70 1 3.27823748991663280e+01
71 1 2.88931480215081713e+01
72 1 2.58620053120873017e+01
73 1 2.51406785506373218e+01
74 1 2.20336899937708104e+01
75 1 2.10365898101234734e+01
76 1 1.94047160387377495e+01
77 1 6.29114662100920263e+00
78 1 -1.71566488362315397e+01
79 1 -1.31535377852258399e+01
80 1 -1.10126003088232896e+01
81 1 -9.53754147030280208e+00
82 1 -7.19510105593725502e+00
83 1 -6.06710060267228535e+00
84 1 -4.91591452182132471e+00
85 1 1.57786882477409796e-01
86 1 3.90232354241499291e+00
87 1 1.50821912597071730e+01
88 1 2.51057332601690213e+01
89 1 3.87978818540732817e+01
90 1 4.74594910264269387e+01
91 1 4.92704891927207314e+01
92 1 5.18955014470846479e+01
93 1 5.28046094851010253e+01
94 1 5.27361906175772575e+01
95 1 5.33347090370081744e+01
96 1 5.91776841408035423e+01
97 1 6.52321785020434532e+01
98 1 6.56277809865642041e+01
99 1 6.65057782515118561e+01
100 1 6.67382345348317045e+01
101 1 6.84979908266921029e+01
102 1 7.77263228739105898e+01
103 1 1.07093951048104003e+02
104 1 1.14274327234826515e+02
105 1 1.22207661641203202e+02
106 1 1.30181186614497790e+02
107 1 1.47523274090069094e+02
108 1 1.73539279257834977e+02
109 1 2.73411758911984805e+02
110 1 3.03411370559841657e+02
111 1 2.92869300638945788e+02
112 1 1.10076838275665111e+02
113 1 8.13144684155975170e+01
114 1 4.16900809343461205e+01
115 1 2.32692030398556433e+01
116 1 -8.37215829873022983e+01
117 1 -1.03535810255834306e+02
118 1 -4.65199161480341417e+01
119 1 2.37630581980939070e+02
120 1 3.10976984554178102e+02
121 1 3.97758170751233422e+02
122 1 4.05017713131250844e+02
123 1 5.14722120838892693e+02
124 1 5.55078271833477515e+02
125 1 4.06934589546595305e+02
126 1 2.87593139906945851e+02
127 1 1.94503523928010310e+02
128 1 -2.32868302895306584e+02
129 1 -2.45269255478685011e+02
130 1 -2.06479784042639409e+02
131 1 -1.81999843795645830e+02
132 1 -1.05134273513402746e+02
133 1 -5.18408553223013442e+01
134 1 1.73755578506821395e+00
135 1 -4.86989746623668918e+00
136 1 -6.95782451566240354e+01
137 1 -1.42444007313203542e+02
138 1 -1.73612742759821344e+02
139 1 8.28299794834512255e+01
140 1 1.73923464703164427e+02
141 1 1.43898601192999195e+02
142 1 1.33486445371062018e+02
143 1 1.15136901788086504e+02
144 1 1.12068877549763073e+02
145 1 1.02195003053288943e+02
146 1 9.48607020834139121e+01
147 1 6.16331664918964464e+01
148 1 5.40852213574835048e+01
149 1 9.13431037717443957e+01
150 1 5.73457850323221479e+01
151 1 4.39747573897630328e+00
152 1 -1.22319850931923796e+02
153 1 -1.09251146697350379e+02
154 1 1.05112876315449341e+02
155 1 1.48549066125184510e+02
156 1 1.55826034669762322e+02
157 1 1.57045154210609809e+02
158 1 1.59693912700655204e+02
159 1 1.62639752894863449e+02
160 1 1.41799202089820625e+02
161 1 1.27781226074419109e+02
162 1 8.40166903714752067e+01
163 1 4.69707611375394904e+01
164 1 -7.93654925460806959e-01
165 1 -1.06112202084924583e+01
166 1 -1.91946775364762985e+01
167 1 -1.23431435150574860e+01
168 1 -1.06051017413593112e+01
169 1 -5.83493547498520293e+00
170 1 -2.82001656063331163e+00
171 1 3.54520721390999993e+00
172 1 1.26492918201443505e+01
173 1 5.33435036961583933e+01
174 1 5.00923431898249660e+01
175 1 7.76353850831780701e+00
176 1 -7.10894212682944016e+01
177 1 -2.51275773085183509e+01
178 1 4.32550075019569107e+01
179 1 4.74407842337575403e+01
180 1 4.97072336526593617e+01
181 1 5.02894495024286954e+01
182 1 5.07635110249495654e+01
183 1 5.51696073485559069e+01
184 1 7.50972660068232045e+01
185 1 1.42342941408448809e+02
186 1 2.49325045410693747e+02
187 1 3.98816213740579428e+02
188 1 4.76661871930965674e+02
189 1 8.82176549409445784e+02
190 1 3.33384480740959475e+02
191 1 1.52530615969019505e+03
192 1 -4.20006407218960067e+03
193 1 -1.48660539967813634e+03
194 1 1.05981859532028284e+03
195 1 -2.82855277661788534e+02
196 1 -2.55677845940617743e+02
197 1 -2.01837335288351596e+02
198 1 -1.58962508004120167e+02
199 1 -4.44525277856785692e+01
200 1 -7.84945326302481661e+00
201 1 2.72998478278477492e+01
202 1 4.96303163395753160e+01
203 1 6.44679138573661561e+01
204 1 6.55535959649643729e+01
205 1 6.64334382333904614e+01
206 1 6.64878498997602350e+01
207 1 6.65145015260600587e+01
208 1 6.65238345477209663e+01
209 1 6.66080485010059249e+01
210 1 6.70624659587928988e+01
211 1 6.75866509355719955e+01
212 1 7.59056465299372718e+01
213 1 9.71211317535580747e+01
214 1 2.09284709473522753e+02
215 1 3.02232013865603108e+02
216 1 3.27284079592441572e+02
217 1 3.60845635240236732e+02
218 1 3.72301483706517388e+02
219 1 4.43253045817738268e+02
220 1 6.37088278542758985e+02
221 1 6.29519373848907094e+02
222 1 4.12396357549591130e+02
223 1 2.99658020466339053e+02
224 1 2.59136122365335268e+02
225 1 2.02395252180894232e+02
226 1 1.20047544289965316e+02
227 1 1.16403075245144635e+02
228 1 1.47780130885690738e+02
229 1 2.17418383413844424e+02
230 1 3.02221211690970222e+02
231 1 3.93216023123025195e+02
232 1 3.58737120700637206e+02
233 1 1.71862113259722491e+02
234 1 4.85517892133042395e+01
235 1 3.83475305031274729e+01
236 1 6.69345931766820996e+01
237 1 7.24465746995643514e+01
238 1 7.18204409053121395e+01
239 1 7.13689787172163221e+01
240 1 6.88210718359036946e+01
241 1 6.78633632485898204e+01
242 1 6.95792497057061183e+01
243 1 7.36892755634675325e+01
244 1 7.52379071124669281e+01
245 1 6.09235704005474048e+01
246 1 -1.55362780180211200e+01
247 1 -2.99281919935744554e+02
248 1 -9.07875988132765428e+02
249 1 1.57184317009131155e+03
250 1 1.42080771369907120e+03
251 1 -2.42215814376621985e+01
252 1 -4.89424012733042275e+02
253 1 -7.19740575825410588e+02
254 1 -8.25466537480661600e+02
255 1 -9.29212502476633063e+02
256 1 -9.97105668174195785e+02
257 1 1.29405552862434024e+03
258 1 2.73131575674294209e+03
259 1 -1.12730987406196527e+03
260 1 -1.38484976633266513e+02
261 1 5.83369445717733129e+02
262 1 -1.44860122425050889e+02
263 1 -1.52057133674555985e+02
264 1 -9.72290261275856693e+01
265 1 -1.38574306553648423e+01
266 1 1.61064312685499651e+01
267 1 6.65121044085592104e+01
268 1 -9.74902061064831571e+00
269 1 -9.05795553672643678e+02
270 1 -4.57534571659441781e+02
271 1 -3.94754457904566380e+02
272 1 -1.60803997589541808e+02
273 1 -1.39413162181402583e+02
274 1 4.38299822329693200e+02
275 1 3.74615080585333772e+02
276 1 4.14632168732444654e+02
277 1 7.02109150744753947e+01
278 1 6.80718650593722145e+01
279 1 4.89476125584514762e+02
280 1 -6.57525818013947287e+02
281 1 1.15511800801547935e+02
282 1 3.65097115068030178e+02
283 1 3.51663001886615177e+02
284 1 7.75566316625029231e+01
285 1 -4.38368145741024591e+02
286 1 2.81912413565132283e+02
287 1 2.96331631651768191e+02
288 1 3.24333623691721755e+02
289 1 8.23455699639282841e+01
290 1 -2.55392032079939690e+03
291 1 1.28713300502283369e+03
292 1 5.36885993340544815e+02
293 1 6.15444780696061571e+02
294 1 5.04476712362915464e+02
295 1 6.85882884976984883e+02
296 1 4.88243760952856292e+02
297 1 -1.14604813522342841e+01
298 1 3.13338221293929735e+02
299 1 6.61527942528542638e+01
300 1 -8.36880077618158822e+01
301 1 1.26579022294631667e+01
302 1 2.01623217357129221e+01
303 1 2.18972977853114514e+01
304 1 8.94393681660775144e+01
305 1 1.75827410896659387e+02
306 1 -3.47456363776064165e+02
307 1 -3.01107930646210150e+02
308 1 2.02817532286480606e+01
309 1 -1.72345910910540510e+02
310 1 1.47153825747522973e+02
311 1 7.02502291853648444e+01
312 1 1.84306864099519771e+02
313 1 1.43496850063388962e+02
314 1 -6.88598761337458143e+00
315 1 5.95370195562405868e+01
316 1 -1.48971995046372825e+02
317 1 2.28945070369157520e+03
318 1 -1.49814406207263005e+02
319 1 5.05171268274314457e+02
320 1 -6.02642704702608717e+03
321 1 3.89653879926561046e+02
322 1 -7.52225093911505610e+02
323 1 2.07469568764811328e+02
324 1 -6.29611970419861890e+01
325 1 3.42889195805136126e+02
326 1 3.68887687815663810e+02
327 1 3.46784150734210527e+02
328 1 -6.70716806221950037e+01
329 1 7.52481362315099602e+01
330 1 1.31423541863704890e-01
331 1 3.60304776644425999e+01
332 1 2.50765737461574361e+01
333 1 4.70594979591614191e+01
334 1 4.75223375699149813e+01
335 1 4.47148732211059041e+02
336 1 2.40557601096759370e+01
337 1 2.25071985880310933e+02
338 1 -1.82799945927723456e+02
339 1 -1.78202810767632172e+02
340 1 -9.66565142605295762e+01
341 1 4.98740686140063332e+01
342 1 1.27187915324049459e+03
343 1 -1.57393140471556109e+02
344 1 3.06007117458408224e+01
345 1 3.00855100489176124e+01
346 1 -2.24804114708181153e+01
347 1 3.38501058014399234e+02
348 1 1.18786642992604357e+03
349 1 -2.13353520102043142e+01
350 1 3.73386146407143471e+01
351 1 9.70595180153542714e+01
352 1 -1.09488480128841161e+02
353 1 3.58807414232423616e+00
354 1 1.60753358370774357e+01
355 1 1.19104873792704396e+02
356 1 -4.02599644034160690e+02
357 1 -1.64066389013180896e+01
358 1 4.88762503269358461e+01
359 1 -1.01764495879749397e+01
360 1 6.83696795213513440e+01
361 1 -2.57226303582196294e+02
362 1 -4.20651482137190413e+01
363 1 -1.68146455408935580e+01
364 1 2.30119573395067878e+00
365 1 -3.50276420530873409e+01
366 1 1.57288196066479429e+02
367 1 7.60785425269832274e+01
368 1 7.17411279095358196e+01
369 1 -2.73049021910144859e+02
370 1 2.45189918309132402e+01
371 1 8.87645920516654542e+02
372 1 6.35279929494163085e+01
373 1 6.92708709784554770e+01
374 1 -2.96917883877583108e+02
375 1 -8.37330868670486161e+00
376 1 -1.43590818185256470e+01
377 1 -1.11438128350378332e+01
378 1 -2.06324404716089767e+01
379 1 -1.41339336180680348e+01
380 1 -3.99541576118666910e+01
381 1 -2.34854207239984447e+01
382 1 -1.28935397559152918e+01
383 1 -4.00103307923180473e+00
384 1 -1.07416744244206708e+01
385 1 -1.19057757558935293e+01
386 1 -8.59593778802707753e+00
387 1 -1.63788268773989216e+02
388 1 1.09426855641533120e+03
389 1 -1.81550103750019389e+02
390 1 8.82105966073131214e+01
391 1 -5.61946419322930524e+01
392 1 -1.10475846691520786e+02
393 1 1.65651724679317653e+02
394 1 -1.30303580912801266e+02
395 1 4.28505887319697081e+01
396 1 -9.24625458383097794e+02
397 1 2.72948540765009227e+02
398 1 4.08259232490560464e+02
399 1 -4.17397802492539753e+01
400 1 -2.24534116366101664e+01
401 1 3.60862195310909044e+01
402 1 1.06118105122767972e+02
403 1 -6.62333145730495261e+01
404 1 -1.58217734979037516e+02
405 1 2.67614111124410329e+02
406 1 -1.67276929158106486e+03
407 1 -8.84737884036767497e+00
408 1 -3.19834389101252782e+02
409 1 -8.14159442770028363e+01
410 1 5.21679634497946267e+02
411 1 -2.66864674019892725e+01
412 1 3.02534419849529456e+02
413 1 4.53728401414386795e+01
414 1 1.32420397654726312e+01
415 1 2.81199435017838120e+01
416 1 -1.31376705513668639e+02
417 1 -7.89399269637800849e+00
418 1 -8.19392989273296450e+01
419 1 -1.53789867179254856e+02
420 1 -8.31982821766640512e+01
421 1 -1.29724595637483503e+02
422 1 -6.12199724686718810e+02
423 1 6.88244006797397105e+01
424 1 1.90882207321419202e+02
425 1 -1.16062439615358380e+03
426 1 1.94421190404026356e+03
427 1 -1.93506339390892862e+02
428 1 2.13516497027053703e+02
429 1 8.46392439439201070e+01
430 1 -2.79230895636354546e+02
431 1 -1.03149058652573746e+01
432 1 3.27047496751646975e+02
433 1 9.02604510140088223e+00
434 1 -1.41183375529478070e+02
435 1 1.50569088583498285e+02
436 1 3.58397649212550604e+01
437 1 -5.16650737703360292e+01
438 1 4.20028755200494288e+01
439 1 1.41637045449066079e+02
440 1 2.65136164239179107e+03
441 1 1.10018559150590249e+02
442 1 2.47103784478974092e+02
443 1 -6.24716595261042329e+01
444 1 8.14551237511177391e+01
445 1 9.70940909743813840e+00
446 1 1.76677931261990182e+02
447 1 5.24739457411514323e+01
448 1 -1.17067783111557148e+02
449 1 -3.57981821160480820e+02
450 1 -1.58278094536545638e+02
451 1 -4.42416010847331791e+02
452 1 -3.12046558554848978e+01
453 1 -2.76136082299758073e+02
454 1 -4.54269417221672143e+02
455 1 3.76979457002471406e+02
456 1 2.14797598130849025e+02
457 1 8.55984097496823182e+00
458 1 4.46647286352583706e+01
459 1 1.02497749585888002e+02
460 1 -2.38292654398230809e+02
461 1 5.65068787672635153e+01
462 1 3.55725487939211575e+01
463 1 1.95061274334488424e+01
464 1 1.62976100349425472e+01
465 1 2.11783689871671541e+01
466 1 3.59574527323269635e+01
467 1 1.68349637878172445e+01
468 1 2.54173528282872439e+02
469 1 1.95999334480446419e+00
470 1 -3.99055944018534419e+01
471 1 1.09736873863831104e+01
472 1 2.54902543642629411e+02
473 1 1.24061478260788277e+02
474 1 4.01539445781433884e+01
475 1 6.76210510251444816e+01
476 1 -8.11263668000977844e+00
477 1 2.49710527050517825e+01
478 1 3.75518276971912428e+02
479 1 -6.04212046230857254e+02
480 1 2.05953816340964835e+01
481 1 1.61793198169428862e+01
482 1 6.28136821779904775e+00
483 1 2.52110735743175987e+01
484 1 -1.39428668893890261e+02
485 1 4.29566595406899552e+01
486 1 -2.50205964923477183e+02
487 1 -6.07387728567719932e+02
488 1 9.96670196860114004e+01
489 1 2.38825869089686726e+01
490 1 3.80152835851057034e+02
491 1 1.38953266322703314e+02
492 1 5.33473880901530492e+02
493 1 5.84017755846415639e+02
494 1 -4.95525136869209405e+02
495 1 2.92381179423365836e+02
496 1 -7.77586487837820300e+02
497 1 2.08573745167806237e+02
498 1 1.39123984265598381e+02
499 1 1.14546556560111554e+02
500 1 -5.54471181556008972e+01
501 1 -2.62530694050890588e+02
502 1 1.68983809757618701e+02
503 1 3.08922322825729509e+02
504 1 2.37603430894979169e+02
505 1 2.39391590558577320e+02
506 1 -9.67521392868022616e+01
507 1 5.97872849979832637e+01
508 1 6.81239846945054097e+01
509 1 1.19490225980131640e+02
510 1 8.21696590095724218e+02
511 1 -3.11425450572329851e+02
512 1 1.40429560037914086e+02
513 1 3.79367358758025318e+02
514 1 3.55687068727636756e+02
515 1 1.19115143732679641e+02
516 1 5.44064599341202140e+01
517 1 1.06944913316903325e+02
518 1 -7.48910742206579584e+02
519 1 1.19012045525560115e+01
520 1 -6.03302903213106106e+02
521 1 2.11044606050043456e+02
522 1 1.99211219478159137e+02
523 1 -1.34563534672373351e+02
524 1 -1.98183027625041376e+02
525 1 -2.72677725029956548e+02
526 1 9.38377545951677348e+02
527 1 -2.75200786640819182e+01
528 1 -7.05156245935322318e+02
529 1 9.52364961100757412e+00
530 1 2.52849595964202734e+02
531 1 -8.42439070857501179e+02
532 1 1.80606600623917842e+02
533 1 2.93967978937028590e+02
534 1 5.04475545581891026e+02
535 1 3.20352407812071363e+02
536 1 -1.21504121914125932e+02
537 1 2.73542262276840006e+02
538 1 2.09191834566712032e+02
539 1 3.30622757471330715e+01
540 1 6.72477874746083444e+01
541 1 -5.13442023712171817e+02
542 1 6.61990274193826167e+02
543 1 1.41298389683610395e+02
544 1 -2.04258546436560141e+03
545 1 -4.22657906348980475e+02
546 1 2.66354917630844511e+02
547 1 1.22397589236514250e+03
548 1 -9.39260459184555287e+01
549 1 -1.69678671200307377e+02
550 1 -1.13911253020229105e+03
551 1 -4.75443445482736252e+02
552 1 -3.97738346988735475e+03
553 1 5.38595497030222532e+02
554 1 -2.34219227484853121e+02
555 1 2.66007534287820988e+02
556 1 1.40171646708321589e+02
557 1 1.02293841756727630e+02
558 1 2.80171110657821828e+02
559 1 3.83001172202767918e+02
560 1 -1.21887724718180266e+02
561 1 -4.69513235247214880e+02
562 1 -2.10209930772729265e+01
563 1 -5.45802473299113331e+02
564 1 1.44723165552253988e+02
565 1 -1.13633101224911357e+02
566 1 -5.52949813497835635e+02
567 1 1.09652305831839001e+02
568 1 1.24914716042734381e+03
569 1 2.73248940552153499e+02
570 1 9.09184381450065871e+02
571 1 -9.71954857419969187e+01
572 1 -4.68262338486276292e+02
573 1 1.22510631947709797e+02
574 1 5.11559876465355046e+02
575 1 -2.19328931630015500e+00
576 1 6.60721972017890806e+01
577 1 -6.97960888378399090e+02
578 1 -1.37112875615705548e+03
579 1 -2.39597733018586410e+02
580 1 -6.94344342366075921e+02
581 1 1.22648159933135013e+01
582 1 2.35840401318178401e+01
583 1 4.58131475225193938e+01
584 1 3.44350068488602972e+01
585 1 3.49793121530006914e+01
586 1 3.99770722475834788e+01
587 1 5.04294491297160761e+01
588 1 5.00376338934784428e+01
589 1 8.11438682279188299e+01
590 1 2.52612834390367276e+01
591 1 3.51866208304399350e+01
592 1 -3.73027019666023918e+01
593 1 -4.64631980718565032e+01
594 1 -1.18726168676906411e+02
595 1 -5.22379728216265775e+01
596 1 -8.33111870610931220e+01
597 1 -9.53056091477138949e+01
598 1 -3.77853383564252226e+02
599 1 -2.33295127405498505e+02
600 1 -6.93348307321999471e+01
601 1 -4.51898002047960574e+02
602 1 -1.39002340084872935e+03
603 1 9.88236225403569506e+01
604 1 2.81518684829011931e+01
605 1 -1.57010289686936176e+02
606 1 1.63563042917029543e+03
607 1 4.15030305985350481e+02
608 1 -5.68164595439432318e+01
609 1 1.09778291952549262e+03
610 1 -1.23170038242364654e+02
611 1 3.21541735733920575e+02
612 1 -2.42778679058819307e+03
613 1 -1.62183212321193935e+02
614 1 1.20995671109584393e+02
615 1 -8.47324843686330951e+01
616 1 -1.08407623053403285e+02
617 1 4.25474014961939361e+02
618 1 4.66553681824097055e+02
619 1 1.12008315771228695e+02
620 1 1.91365664817558184e+02
621 1 1.63775187903384449e+02
622 1 1.58699445427391993e+03
623 1 -3.34119012025062858e+01
624 1 3.62015901359756782e+01
625 1 8.26900019420542094e+01
626 1 7.46246115083673232e+01
627 1 4.84658974206239748e+01
628 1 5.34613106650282646e+01
629 1 6.06571173701610888e+01
630 1 3.99398365556134962e+01
631 1 4.94125933503329691e+01
632 1 4.12911134597011156e+01
633 1 7.05290559836090267e+01
634 1 4.30540985131043215e+01
635 1 3.62989052127606939e+01
636 1 3.54864542973834745e+01
637 1 3.33720630072476183e+01
638 1 2.46629769750649572e+01
639 1 2.54164623602226243e+01
640 1 2.29021561725308658e+01
641 1 3.02740017959929375e+01
642 1 3.18943761014872003e+01
643 1 5.66906916682198343e+01
644 1 1.00560279790466879e+02
645 1 8.03330319350095436e+01
646 1 1.30623384940201646e+02
647 1 1.17934387595832135e+02
648 1 9.70925901057623264e+01
649 1 3.98356775485976982e+02
650 1 1.99768199355780069e+02
651 1 2.29748348841514058e+02
652 1 1.57587921152362384e+02
653 1 3.53148802945537341e+02
654 1 2.61698359825615569e+02
655 1 1.76301055023423203e+02
656 1 8.54637441733867860e+01
657 1 9.18420391129082390e+01
658 1 1.58628730434547887e+01
659 1 6.11902649425766896e+01
660 1 5.38768611332532288e+01
661 1 5.59214188666239238e+01
662 1 3.47528542168765640e+01
663 1 7.43960581091074147e+01
664 1 4.90956550335741539e+01
665 1 9.66797895767524693e+01
666 1 1.54980844340484580e+01
667 1 -5.51001262190362553e+01
668 1 1.53357898851266270e+02
669 1 -3.04004614978571169e+02
670 1 -1.76730835419827599e+02
671 1 -1.45057963992445593e+02
672 1 4.13955721430432163e+02
673 1 7.58779460058957284e+02
674 1 -2.39360955404527857e+02
675 1 7.35548818110550116e+01
676 1 4.84839662968173570e+01
677 1 3.65042820755000093e+02
678 1 -1.63013163299076709e+01
679 1 -1.13650996355394213e+02
680 1 9.69277460602350516e+01
681 1 4.04095368606814986e+02
682 1 1.49143742429685403e+02
683 1 2.46578158739974697e+02
684 1 5.84891363504664241e+02
685 1 8.01535312623574470e+01
686 1 4.12739676639768902e+01
687 1 3.92977752857391991e+01
688 1 3.13423380064803361e+01
689 1 3.66795628442135637e+01
690 1 -5.46865172691531001e+01
691 1 9.99550614941745010e+01
692 1 -4.50440610528210357e+02
693 1 -2.86343003481798291e+02
694 1 1.70979548583466567e+02
695 1 7.57768299255545088e+01
696 1 1.19706208634362227e+02
697 1 9.83908807703060546e+01
698 1 5.51908511925123193e+01
699 1 3.27689854569473908e+01
700 1 3.80180972987533607e+01
701 1 4.60919572828479502e+01
702 1 3.01294323629735707e+01
703 1 6.28281296681517976e+00
704 1 1.26289566917205338e+01
705 1 -2.52896587346124022e+01
706 1 -7.04135082433653547e+00
707 1 -2.00738195594719855e+01
708 1 -1.58185419091965809e+01
709 1 -5.67782661920718610e+01
710 1 1.19182328001690525e+01
711 1 1.15572658660951113e+01
712 1 2.24444731066783305e+01
713 1 1.89007565152845309e+01
714 1 5.89125417661863615e+00
715 1 -3.45818049554383933e+00
716 1 2.62935450537417825e+00
717 1 -1.12559664043965291e+00
718 1 6.80327055632278359e+01
719 1 -1.69162363829432429e+01
720 1 -4.79530710349028482e+01
721 1 -7.98101947023764637e+02
722 1 -3.16246578145789556e+02
723 1 -1.57520692050461116e+03
724 1 -4.95260897761724195e+01
725 1 -7.96006317314129603e+01
726 1 1.28618960938846112e+03
727 1 -2.19516971769955205e+02
728 1 -4.67618790461085254e+01
729 1 -3.84485464746992633e+01
730 1 -1.08793045823372012e+02
731 1 1.23234477525072151e+02
732 1 -7.78291598846084582e+01
733 1 4.72458393004279969e+02
734 1 2.82297420714362033e+02
735 1 5.32029452420664256e+02
736 1 -1.48861370458802867e+03
737 1 1.74396672896739403e+02
738 1 -2.78172630956609112e+02
739 1 -7.69350309934108509e+02
740 1 3.39622944388273780e+01
741 1 -3.42044280653470423e+02
742 1 -2.42028517947509840e+02
743 1 -1.27175288016692562e+02
744 1 -8.77089992199874047e+00
745 1 -2.65484318289232704e+02
746 1 -5.75919624250216415e+01
747 1 -1.43294477431034778e+02
748 1 3.79535281891976069e+02
749 1 1.55353703540973083e+03
750 1 -1.25480301589167070e+02
751 1 1.46547721002927851e+01
752 1 -3.78026976162844051e+01
753 1 -4.85711200606546925e+02
754 1 -1.34569870898989933e+02
755 1 1.07479726136048896e+02
756 1 -1.92157170302758544e+02
757 1 6.52072239599024925e+01
758 1 1.53333517689799578e+02
759 1 1.35072328501354491e+02
760 1 6.03343388811389261e+01
761 1 1.23528603724541398e+02
762 1 1.25357589529078339e+02
763 1 -1.08736238213989242e+01
764 1 9.24938100264186147e+01
765 1 5.29290532681555348e+01
766 1 -9.96783438659081433e+00
767 1 5.89552060089406922e+01
768 1 -6.42216783638395441e+02
769 1 -2.13396837088540633e+03
770 1 -2.02628736878468288e+02
771 1 -6.36089810857185626e+02
772 1 -6.53923175689019672e+02
773 1 -1.56059204590214063e+03
774 1 -5.24852257736370191e+01
775 1 -5.00607339794482016e+02
776 1 -2.98959966392073056e+02
777 1 4.46525704586270251e+02
778 1 1.13467119187029581e+02
779 1 -1.13900740375132671e+02
780 1 1.39344029941367715e+01
781 1 -2.23500785067148158e+01
782 1 -6.48510496510524916e+01
783 1 -1.40993991975099135e+02
784 1 -5.59480055664057545e+01
785 1 -1.19887130820152983e+01
786 1 -1.06050731475276208e+02
787 1 -4.20124100704731234e+02
788 1 -2.42510799900137641e+02
789 1 -1.83787113901406201e+02
790 1 -6.38799956567719050e+02
791 1 -6.71124201234998623e+02
792 1 -7.90610869457863146e+02
793 1 -2.18754899809402701e+02
794 1 -1.67753957381656960e+03
795 1 -3.09811361431898433e+02
796 1 -4.02919778894601052e+02
797 1 -1.38765470795944088e+03
798 1 2.35902135583465167e+02
799 1 1.28516986440452996e+02
800 1 1.25771806820274449e+02
801 1 7.06433803954881000e+02
802 1 -2.87431166608537012e+02
803 1 7.79653461899741558e+01
804 1 1.15451112502891988e+02
805 1 1.13377270112551727e+02
806 1 6.75579321348957706e+02
807 1 1.77466416059935227e+02
808 1 4.97981957768085181e+02
809 1 4.63745419879182919e+02
810 1 -6.55182970161953762e+01
811 1 -4.69952673738317941e+01
812 1 1.58462120039684351e+02
813 1 -2.19002543418068143e+01
814 1 -9.93310338428796946e+00
815 1 -5.97064660381303938e+01
816 1 -6.11115789458968806e+01
817 1 -6.88888738738215665e+01
818 1 -8.63552128595544417e+01
819 1 -2.38453468911137043e+03
820 1 -6.10823565774401345e+02
821 1 6.06354305297037808e+03
822 1 -1.18650483243580379e+03
823 1 -3.73783538872538600e+02
824 1 -4.90345742844886161e+02
825 1 5.11215019906158432e+02
826 1 9.50539667086577992e+02
827 1 3.45746222938498818e+02
828 1 9.47735758977821206e+02
829 1 1.97857007381464541e+02
830 1 -3.85924064349953042e+01
831 1 -2.30765169297175365e+00
832 1 1.81082262930629447e+01
833 1 2.34095506739397408e+01
834 1 4.94495759363309020e+01
835 1 -1.39258437599244917e+01
836 1 1.85139965756547582e+01
837 1 2.50614224174126505e+01
838 1 1.56711409391718277e+01
839 1 2.91151327309416365e+03
840 1 1.63756060414177796e+02
841 1 -3.63579077579097032e+02
842 1 -6.04911494024420762e+01
843 1 1.12986991469347936e+03
844 1 2.50912505899353874e+02
845 1 2.86731764797675112e+02
846 1 1.45105058535043714e+01
847 1 3.28048316642604505e+02
848 1 1.13360251607087292e+02
849 1 1.61060743046290497e+02
850 1 1.03179787381891103e+02
851 1 -9.16083530952570300e+02
852 1 -4.16597535793680208e+02
853 1 -7.94688367449638662e+01
854 1 -1.33065933830314435e+02
855 1 1.65516897338503867e+02
856 1 1.83262729995559880e+02
857 1 3.26308775608141218e+02
858 1 2.72033233254718425e+02
859 1 2.41053231339580719e+02
860 1 -1.79542534747623449e+02
861 1 7.17369443323620885e+02
862 1 2.31546914040849686e+02
863 1 -3.76914634739097565e+01
864 1 8.28321348510609823e+02
865 1 6.80315723975653441e+02
866 1 -2.10395556577642608e+01
867 1 2.12024687731322246e+02
868 1 1.02349788106694021e+02
869 1 -1.32933238462766667e+03
870 1 -3.12932178026987003e+02
871 1 -3.96008614869121459e+02
872 1 -1.04967667681958892e+03
873 1 -1.95451147570692228e+02
874 1 -3.34283883759808687e+00
875 1 7.59351179202444797e+01
876 1 3.44395315805891812e+02
877 1 1.44091971319538686e+02
878 1 3.51129972928366442e+02
879 1 2.51473433700622337e+02
880 1 2.09121071114250014e+02
881 1 6.94319560911083840e+02
882 1 2.30121148765360999e+02
883 1 1.63065656456018814e+02
884 1 -2.35739055630440930e+01
885 1 -2.61527911198755589e+02
886 1 -3.09949853172856308e+02
887 1 -9.26375257631654677e+03
888 1 6.04382645538500611e+01
889 1 -8.11273205295727848e+01
890 1 1.26964195329076574e+02
891 1 2.92734617178400356e+02
892 1 -2.23727951138756708e+02
893 1 -1.92765967805131993e+02
894 1 -3.48258185014452124e+02
895 1 1.01561802465057974e+03
896 1 8.16355649851023912e+01
897 1 -2.24229495432899000e+02
898 1 -1.30579441140052865e+02
899 1 -5.40129909044640666e+00
900 1 4.99870707022681700e+02
901 1 -2.70812473411666019e+02
902 1 -6.20484753950435902e+02
903 1 -6.34222271671968883e+02
904 1 6.55113960794567163e+00
905 1 -1.56784990148641214e+02
906 1 -3.91619815934061251e+01
907 1 -6.14172410928569263e+01
908 1 1.90220660771376174e+02
909 1 1.16980260595294155e+02
910 1 -3.61895939053177528e+02
911 1 -1.36222240994821277e+02
912 1 -3.51270017476965393e+01
913 1 1.54453207967566808e+01
914 1 -6.97025744220255206e+01
915 1 5.76333495649274823e+02
916 1 7.12725246040291609e+02
917 1 2.91280330614420620e+02
918 1 2.92293416825753980e+02
919 1 3.60518733905963927e+02
920 1 -3.01300573770201424e+02
921 1 1.46039776155609857e+01
922 1 2.71895968262013241e+02
923 1 -2.97245223979597881e+02
924 1 4.27371336263558845e+01
925 1 -1.10623823176033600e+01
926 1 -5.23445444882863242e+01
927 1 1.67393035030685894e+02
928 1 2.45883456196826785e+02
929 1 3.19044553434799809e+02
930 1 -6.73920963632360071e+01
931 1 -1.38260610019302362e+02
932 1 1.02192053397442812e+01
933 1 1.95468733046459704e+02
934 1 -2.24719597491002371e-01
935 1 1.46436534023341801e+03
936 1 3.31985217351657127e+02
937 1 5.92640296542013871e+01
938 1 4.57659031447738869e+02
939 1 1.90211264964970361e+01
940 1 3.61548832067551800e+01
941 1 6.06863787235860244e+01
942 1 -8.25693601598428302e+01
943 1 2.39094471631120236e+01
944 1 4.06945166328731531e+01
945 1 4.43659316511176030e+02
946 1 5.14213074654714205e+02
947 1 -5.63381786212052816e+02
948 1 -7.37670310356249729e+02
949 1 -4.42760166092206191e+02
950 1 -5.13188579650217662e+02
951 1 -5.73967685619792405e+02
952 1 -1.00881688151337343e+01
953 1 -2.92839013865000197e+01
954 1 -1.63821552536009835e+03
955 1 1.76450861300862528e+02
956 1 5.08332693342034531e+02
957 1 -6.23465365999935983e+01
958 1 1.46879596963713137e+01
959 1 -1.33248660534642966e+02
960 1 1.44164822157284647e+01
961 1 1.34203965834415495e+01
962 1 2.94391748563124906e+02
963 1 1.06910346900327724e+02
964 1 8.51529630255141967e+01
965 1 5.85387949319386802e+00
966 1 -3.28577778948319292e+02
967 1 -5.06469563206893440e+02
968 1 3.94169967823814247e+01
969 1 -6.95417163849177996e+02
970 1 -3.78400171330402273e+01
971 1 6.38096796954447214e+01
972 1 2.12999077483371082e+02
973 1 2.58004842053672760e+01
974 1 3.23703580556098771e+01
975 1 4.26408214117263782e+01
976 1 2.04415773720548763e+01
977 1 1.37343941570677863e+01
978 1 1.03211419936961164e+01
979 1 1.11587158410717855e+01
980 1 -2.01508911071491809e+02
981 1 1.62533187783479661e+03
982 1 -1.36977929333202184e+02
983 1 -6.50794589878317765e+02
984 1 -4.50714767657389359e+01
985 1 -4.51506188374277926e+01
986 1 2.71262105134931986e+01
987 1 2.70120493877873109e+01
988 1 3.11412845481823197e+01
989 1 8.80673900648949797e+01
990 1 9.05656625396159569e+01
991 1 -3.19480302110512639e+02
992 1 -2.19752236907323322e+02
993 1 -1.53710074505843124e+02
994 1 -1.14142988822848974e+03
995 1 -2.17672736221364221e+03
996 1 5.12559245182018003e+02
997 1 1.87748283700169942e+01
998 1 9.10712502688182042e+01
999 1 2.28726773657401338e+02
1000 1 2.37483130039188985e+01
1001 1 2.27680232038513623e+02
1002 1 7.19121090830791587e+01
1003 1 8.07282338927805085e+01
1004 1 -1.79417585603129126e+01
1005 1 2.15696052741917498e+02
1006 1 2.53293409658530692e+02
1007 1 4.02004649061403711e+02
1008 1 4.95924618649737567e+02
1009 1 2.51238107907515570e+02
1010 1 2.39381956831770623e+02
1011 1 1.10567838228988393e+02
1012 1 7.23640486527258275e+01
1013 1 6.77212803672014729e+01
1014 1 -1.31855591429524566e+02
1015 1 3.28297872220069848e+03
1016 1 1.15911084962284164e+02
1017 1 -1.44354250826983889e+03
1018 1 -1.53310299059908243e+03
1019 1 -1.22613421179589288e+01
1020 1 -1.64893183652587226e+02
1021 1 1.08215134484840814e+01
1022 1 -4.69347848992669867e+01
1023 1 6.65063409263085106e+01
1024 1 2.76814253684974972e+02
1025 1 5.24967836282669941e+03
1026 1 -7.95127122011003394e+02
1027 1 -4.80854915293282318e+02
1028 1 1.39021149757188709e+02
1029 1 -2.04214769494076904e+02
1030 1 -4.45507095269475258e+02
1031 1 -8.82962761557867850e+01
1032 1 3.20816230156008885e+02
1033 1 -2.45661469637985448e+01
1034 1 -1.76318938504140945e+01
1035 1 4.70500135059273362e+02
1036 1 4.30874655108269280e+02
1037 1 5.51996179514921323e+02
1038 1 5.04633644395644509e+01
1039 1 -3.79072966020821127e+01
1040 1 -1.04722603109132564e+02
1041 1 -1.35433672806665732e+03
1042 1 -2.79935263600854705e+03
1043 1 6.37631025131408251e+02
1044 1 6.63003256499729190e+01
1045 1 -7.40140386824077581e+01
1046 1 3.91175198467674932e+02
1047 1 -6.12004984676491333e+01
1048 1 -6.67685932943508220e+01
1049 1 -2.17062820073187225e+02
1050 1 -1.27419848053978328e+02
1051 1 -1.93165200907089684e+02
1052 1 -2.68665147096961391e+03
1053 1 2.79011469651210689e+02
1054 1 3.52924640063989045e+02
1055 1 -1.22857910213077025e+03
1056 1 2.08249227373109250e+02
1057 1 3.69315445677720618e+02
1058 1 -1.81046258025842940e+03
1059 1 -1.51180501378494250e+03
1060 1 1.31838275054760993e+03
1061 1 1.39901594825651756e+02
1062 1 7.40832242094613349e+01
1063 1 7.21470594128709877e+01
1064 1 6.99175839135229467e+01
1065 1 4.54610163381256456e+01
1066 1 5.30386813491361551e+01
1067 1 8.41044758190248672e+02
1068 1 4.93256034424271434e+02
1069 1 4.35541077805451778e+02
1070 1 -1.27181486470013283e+02
1071 1 -1.25960794846354034e+02
1072 1 1.83029193808361310e+03
1073 1 8.51353244210064645e+02
1074 1 1.77999834366241103e+01
1075 1 7.61653953975999514e+01
1076 1 5.02587599157265799e+02
1077 1 3.78715050724850428e+01
1078 1 -4.68961935387740425e+01
1079 1 -1.46169751273398106e+02
1080 1 1.13239765590561220e+02
1081 1 8.71817642998029640e+01
1082 1 -1.02459443551736626e+02
1083 1 -1.69148498945900315e+02
1084 1 -1.64258011590447097e+02
1085 1 -6.86222234378675040e+01
1086 1 -1.10464480511087785e+02
1087 1 -6.54750371164624756e-01
1088 1 -6.12006366713429006e+00
1089 1 1.60321252079713332e+02
1090 1 5.69227308939736716e+01
1091 1 7.89563407369373351e+01
1092 1 5.57981951280974968e+01
1093 1 -5.03722760714038742e+01
1094 1 6.41688414071665107e+01
1095 1 -4.47363251801199056e+02
1096 1 6.85807787744663955e+01
1097 1 1.12985008514292304e+02
1098 1 5.62193215815322986e+01
1099 1 -1.76072837567466621e+02
1100 1 -2.19550846081581085e+02
1101 1 -3.92141169504755593e+00
1102 1 -2.47061353299123532e+01
1103 1 -1.63257549657471870e+01
1104 1 -8.54046736300730061e+01
1105 1 -4.22618015451630163e+03
1106 1 -6.14405432853143338e+02
1107 1 -4.37063314165145513e+01
1108 1 4.54733283312952040e+02
1109 1 1.34871464908224141e+02
1110 1 1.08557997380258115e+02
1111 1 3.02431308851896574e+02
1112 1 4.03840392746880354e+02
1113 1 -2.50199567368007223e+01
1114 1 -1.16287512518466343e+02
1115 1 9.25158372584634776e+01
1116 1 8.35032756900062054e+01
1117 1 1.44705214431841654e+02
1118 1 4.27198886093579944e+01
1119 1 -1.66847073992023024e+03
1120 1 -1.47178602899847851e+03
1121 1 3.93276251646615094e+02
1122 1 6.60873037595109622e+02
1123 1 -7.77712777338701244e+02
1124 1 -5.47713819065169332e+02
1125 1 1.18176290368102855e+02
1126 1 -3.96877802141743530e+01
1127 1 3.84492822804600323e+01
1128 1 2.40282267001442733e+02
1129 1 7.62745397245800945e+01
1130 1 4.98199785424946924e+02
1131 1 1.03003119183096533e+03
1132 1 2.27609968363550979e+03
1133 1 -2.08705492053137095e+03
1134 1 -9.46829182756095361e+03
1135 1 4.06226902944058992e+01
1136 1 3.07224500152001519e+03
1137 1 -5.96904114552656779e+02
1138 1 -8.68949220186563139e+02
1139 1 -1.14497146884194066e+02
1140 1 4.08504185263066688e+01
1141 1 -2.29819195466536485e+02
1142 1 2.24253516002592136e+02
1143 1 5.93436560724236529e+02
1144 1 5.93463702472649970e+02
1145 1 8.37940924351457284e+01
1146 1 3.74026786937055746e+01
1147 1 -5.93258223793768380e+01
1148 1 -6.36172240535671918e+01
1149 1 -1.03073589618056587e+02
1150 1 -5.31767709303544152e+01
1151 1 -1.16255930656619284e+02
1152 1 -8.92562569305844136e+01
1153 1 -1.83097972141232702e+02
1154 1 -2.70034659218494880e+02
1155 1 3.05836857837038707e+01
1156 1 4.67725589338283143e+01
1157 1 7.54443030949848463e+01
1158 1 -1.90053243167964723e+02
1159 1 -8.65464073577308284e+01
1160 1 -4.07426355132140486e+02
1161 1 2.61326079905123265e+01
1162 1 -6.19154101202001002e+01
1163 1 6.29236375947645001e+02
1164 1 6.17418332248815815e+01
1165 1 1.54945064092319768e+02
1166 1 7.85656690493132714e+02
1167 1 3.81861333049059510e+02
1168 1 1.81446138129840975e+01
1169 1 1.67451874824819583e+02
1170 1 -2.83803906559798875e+01
1171 1 -5.88527046944200976e+01
1172 1 -7.68035166556069626e+00
1173 1 -2.02377971084545791e+01
1174 1 -6.89483193155633529e+01
1175 1 9.75464516136290740e+01
1176 1 1.29116149645742496e+02
1177 1 2.23551255166096468e+02
1178 1 2.53091924178317328e+02
1179 1 2.29486715765850676e+02
1180 1 -2.14042294748507857e+02
1181 1 -1.71134583759274967e+01
1182 1 3.17689040999597907e+01
1183 1 -2.83314845691381436e+02
1184 1 -4.12236876802702341e+02
1185 1 -3.63309716547880726e+02
1186 1 -7.00395141861941283e+02
1187 1 -3.38471523118342475e+02
1188 1 7.47318318608406571e+01
1189 1 -1.87234385063293018e+02
1190 1 -1.89381422674811574e+02
1191 1 -3.36421307019188419e+02
1192 1 -1.52868901105994064e+03
1193 1 1.28271557317261937e+02
1194 1 2.23634837919450753e+01
1195 1 -8.23623745918681465e+01
1196 1 1.16897103534116837e+02
1197 1 1.65879443900805114e+02
1198 1 3.34677284132722193e+01
1199 1 2.14611702592342965e+02
1200 1 1.58191705405577632e+00
1201 1 -7.33726381935732945e+01
1202 1 -8.07999743800409789e+01
1203 1 1.31441622575500048e+02
1204 1 1.33916251491211597e+02
1205 1 7.36262257349429063e+01
1206 1 4.66000363348006772e+01
1207 1 5.39182776012571878e+01
1208 1 2.71520427485369815e+01
1209 1 2.30716289139904553e+01
1210 1 3.42134840924223283e+02
1211 1 2.07878624976285494e+02
1212 1 1.53922286225847330e+02
1213 1 3.23671982017282289e+02
1214 1 1.02672142812385474e+02
1215 1 5.46115326792716189e+01
1216 1 -2.78376333715838982e+01
1217 1 -2.12546903940807361e+01
1218 1 6.99832610326864000e+01
1219 1 -6.12274284520534948e+01
1220 1 2.57412117058681304e+02
1221 1 1.43671064649528205e+02
1222 1 3.06096196033470314e+01
1223 1 8.13900878559229142e+01
1224 1 1.37019591390572515e+02
1225 1 2.92979549915111761e+01
1226 1 7.78580499548311451e+01
1227 1 -1.05261711157925248e+02
1228 1 -6.23026059581186420e+00
1229 1 3.00532307750320513e+02
1230 1 3.41989579148838857e+02
1231 1 1.80297589704399606e+01
1232 1 3.32251095476875022e+01
1233 1 1.42502556402552329e+01
1234 1 3.62290305819856883e+02
1235 1 3.06904166628065695e+02
1236 1 5.32048229220560870e+02
1237 1 5.06510254093111257e+02
1238 1 2.43855648588136269e+01
1239 1 1.86204440227491794e+01
1240 1 1.41366349619883636e+01
1241 1 -2.07549304070927832e+02
1242 1 -1.54673796491398576e+02
1243 1 -1.61716803328436271e+02
1244 1 -2.85955798936128986e+02
1245 1 -1.50247994433010007e+02
1246 1 -9.72063897209588845e+02
1247 1 -4.87976443881524631e+02
1248 1 -3.93871984589632746e+02
1249 1 -3.90578094346681951e+02
1250 1 -6.70633045606959115e+01
1251 1 -3.51400348925262946e+01
1252 1 -7.97978173152431083e+01
1253 1 3.56420115857242195e+01
1254 1 7.48021344281855590e+02
1255 1 1.66394057702500106e+02
1256 1 8.37209574617329366e+00
1257 1 1.28978899388074780e+02
1258 1 1.75738769019318255e+02
1259 1 2.45031029707577403e+02
1260 1 5.28852702610560527e+02
1261 1 7.86845301203722670e+02
1262 1 5.75040356213805808e+02
1263 1 1.27113247802450678e+03
1264 1 5.56491335295374256e+02
1265 1 -1.16161975469988647e+02
1266 1 -7.39009845393799537e+02
1267 1 -5.26099903184865298e+02
1268 1 -1.98681289653272728e+02
1269 1 4.61730272078362759e+02
1270 1 3.93126583422664510e+02
1271 1 1.75204780613742798e+02
1272 1 1.00501712452820800e+03
1273 1 -2.15551279609922091e+02
1274 1 -3.56254302287265887e+02
1275 1 1.29010624787543463e+02
1276 1 1.93074470448672912e+02
1277 1 8.26995887111275749e+01
1278 1 8.14459629593099805e+01
1279 1 1.72205679731462936e+02
1280 1 1.33416164982146910e+02
1281 1 5.53364046950568564e+01
1282 1 -1.41950285016032581e+02
1283 1 5.81317231423386360e+01
1284 1 1.90213057458162638e+02
1285 1 2.05393465041812277e+02
1286 1 1.96654371724727753e+02
1287 1 3.03277472629868498e+02
1288 1 2.47057651750461076e+02
1289 1 7.17345844848820917e+01
1290 1 1.37739532939131323e+02
1291 1 -1.31290022368843093e+01
1292 1 1.24238056838027433e+02
1293 1 4.99527904238683789e+01
1294 1 -1.32077165991996246e+01
1295 1 7.09777992592123269e+02
1296 1 4.36538188039523959e+02
1297 1 -1.80868973678803854e+02
1298 1 -3.75318035618464648e+02
1299 1 -8.56863659518417649e+01
1300 1 1.00645881893201107e+02
1301 1 9.32502972582443363e+02
1302 1 4.30024798217038740e+00
1303 1 3.75122283902327979e+02
1304 1 4.22135165619946008e+02
1305 1 4.55198076724166015e+02
1306 1 2.70366620796394734e+01
1307 1 3.30722162672215859e+02
1308 1 1.59158708240422925e+02
1309 1 4.36661725022322642e+01
1310 1 2.45978506809136576e+02
1311 1 1.28606364250024995e+02
1312 1 -1.13346314594266559e+02
1313 1 -7.19933387863781604e+01
1314 1 -6.42793039490886031e+02
1315 1 2.42870706452510703e+01
1316 1 -1.79645456622631023e+01
1317 1 -8.44770615633105422e+01
1318 1 -1.96697514902447529e+03
1319 1 1.67119773270595402e+02
1320 1 -1.91186413837941899e+02
1321 1 -1.94283437214317075e+02
1322 1 -1.39372445748949986e+03
1323 1 3.59156836466111372e+02
1324 1 1.85588487964715085e+01
1325 1 4.69936221987945828e+02
1326 1 -7.10361334116375787e+00
1327 1 -1.13739206401505882e+02
1328 1 -1.16186436876958851e+02
1329 1 -1.42654828610421447e+02
1330 1 -1.76726509327466914e+02
1331 1 -1.21051973449259791e+02
1332 1 -2.23168142687880930e+02
1333 1 2.60127124943997899e+02
1334 1 -5.80323286732645897e+02
1335 1 -4.17357388794284645e+02
1336 1 -5.05793074572879789e+02
1337 1 4.16213980804734973e+01
1338 1 -4.01991633329462672e+02
1339 1 7.32021179286084873e+01
1340 1 4.31954634949845229e+02
1341 1 1.28366938891000473e+02
1342 1 -7.54092859410105092e+01
1343 1 2.28662405483048445e+02
1344 1 3.17777032091220860e+02
1345 1 6.93960652395030252e+02
1346 1 1.45216012308467100e+02
1347 1 1.70699965160490456e+03
1348 1 5.68789266170588235e+02
1349 1 8.61562292528990383e+01
1350 1 5.81218247275648764e+02
1351 1 6.38778968649397484e+02
1352 1 2.54935121592897957e+02
1353 1 1.88039252561474228e+02
1354 1 4.55368685047939323e+02
1355 1 6.66865966014900238e+01
1356 1 -3.75804300039677855e+02
1357 1 6.75686720674804633e+01
1358 1 -7.12175048596008224e+01
1359 1 -2.99348025124979920e+01
1360 1 1.41727435979585380e+02
1361 1 1.45341161143929014e+02
1362 1 -7.80896224795185844e+02
1363 1 -4.49365929185686696e+02
1364 1 -1.94467106406049282e+02
1365 1 5.57199259940267098e+01
1366 1 2.86163937839962443e+02
1367 1 -9.04673964342842964e+02
1368 1 -1.38556121313816175e+03
1369 1 -7.18832886215166241e+02
1370 1 -1.47584607003605720e+03
1371 1 1.08219031565690287e+02
1372 1 -1.18880710352129631e+03
1373 1 -3.31457625927433719e+03
1374 1 -2.33637629232214614e+01
1375 1 -7.70729340251342705e+02
1376 1 3.48113793911787241e+02
1377 1 8.49422777480657942e+02
1378 1 -4.03849102078927956e+02
1379 1 -7.54638456788936196e+01
1380 1 -3.61132642692869354e+02
1381 1 4.68308654392020856e+02
1382 1 -3.44568680950673070e+02
1383 1 4.53795998214616134e+02
1384 1 -3.11117602222916538e+01
1385 1 3.41725625588104606e+02
1386 1 -1.48629353477101915e+02
1387 1 -7.80402952787287177e+02
1388 1 1.42448986670157797e+03
1389 1 -6.24846460665812401e+02
1390 1 5.46168272687025251e+02
1391 1 1.73505086195897297e+03
1392 1 4.63281179255906750e+02
1393 1 1.28772232263310889e+03
1394 1 3.27911801265253132e+02
1395 1 -4.29228054420375429e+01
1396 1 3.15040690393953753e+01
1397 1 2.76372186230863349e+02
1398 1 2.07760468808780097e+01
1399 1 -3.20531332071905553e+01
1400 1 1.38914909381146714e+02
1401 1 1.09454093290534814e+02
1402 1 6.14263294599544736e+01
1403 1 1.90606880928462090e+02
1404 1 1.87177637075393079e+02
1405 1 -7.56542213412447154e+02
1406 1 -5.19413338447028039e+01
1407 1 2.85918057207890172e+02
1408 1 3.95954781315306718e+02
1409 1 1.49422414113287687e+02
1410 1 2.26384057270814168e+02
1411 1 8.29368781728353071e+01
1412 1 2.76524905210343206e+02
1413 1 3.63742424425751040e+02
1414 1 4.12520631198971557e+02
1415 1 -1.82405683534431120e+02
1416 1 -6.38284138577688935e+01
1417 1 -1.78246021332907333e+02
1418 1 -4.27605001051937109e+02
1419 1 -5.05724364332954622e+02
1420 1 7.86679665231034608e+00
1421 1 -9.17861304324872833e+01
1422 1 -2.28851114807822569e+02
1423 1 -1.67267972316962869e+02
1424 1 -1.38765670510367300e+02
1425 1 -1.60400039530757851e+02
1426 1 -4.72370852634914002e+02
1427 1 4.93493283923847770e+01
1428 1 1.49061421228648669e+02
1429 1 -2.46165246961247533e+02
1430 1 6.57170551991668788e+01
1431 1 4.82557038046889346e+01
1432 1 2.56106963143357916e+02
1433 1 -9.58239894623436683e+00
1434 1 1.32391502249005453e+03
1435 1 9.11707757682253941e+02
1436 1 1.64973904722370753e+03
1437 1 6.09872906010918655e+02
1438 1 -4.74745209778957076e+02
1439 1 2.34277168252019862e+02
1440 1 -4.30306794367339023e+02
1441 1 -5.61370361844729814e+02
1442 1 -2.91325708139959602e+02
1443 1 4.85749672913658969e+02
1444 1 6.50478451220366196e+02
1445 1 -1.08789270976477565e+03
1446 1 4.49570484667496203e+02
1447 1 1.65990278751982117e+02
1448 1 9.52844948281081514e+01
1449 1 1.39486001169042481e+02
1450 1 -1.15450775647092807e+00
1451 1 1.07244924400492803e+01
1452 1 1.75495670977206486e+00
1453 1 3.28043954409014475e+02
1454 1 -4.37032187362704292e+02
1455 1 -1.49008593720889877e+02
1456 1 -1.00922082147205288e+02
1457 1 -5.59741333735855278e+02
1458 1 -5.97813970661496228e+02
1459 1 6.22202766389826593e+02
1460 1 -2.39787289172784995e+02
1461 1 -5.82067449377888579e+02
1462 1 -6.82187447795386674e+02
1463 1 1.07988539107826355e+02
1464 1 -1.68836138777003782e+02
1465 1 -5.46945004608453829e+01
1466 1 2.62616367871687793e+01
1467 1 3.65471428023220284e+01
1468 1 5.44633308980578619e+01
1469 1 7.02875018673589835e+01
1470 1 2.27847323226222969e+01
1471 1 2.87249371853458513e+01
1472 1 3.05512587380237370e+01
1473 1 -4.23693641695225978e+01
1474 1 -5.15920352052416575e+01
1475 1 -2.93057503867746441e+01
1476 1 -4.21200469267068343e+01
1477 1 -8.55224247806047515e+01
1478 1 -7.94938498372462732e+01
1479 1 -7.38886583276787690e+01
1480 1 -1.17176635853087646e+02
1481 1 1.98848285478701770e+00
1482 1 -5.40406636553238968e+01
1483 1 -2.14920810055333007e+01
1484 1 -2.31490342559739474e+02
1485 1 -9.81426419695255703e+01
1486 1 -1.93417239840942408e+01
1487 1 -1.80378415703350043e+02
1488 1 -1.61434160359303604e+02
1489 1 -2.81389009306560069e+02
1490 1 -1.24305562961803687e+02
1491 1 -3.38051507931009610e+02
1492 1 -4.40762186161792386e+02
1493 1 -3.11464010332369298e+02
1494 1 -4.81057151765617220e+02
1495 1 -6.07459628952110052e+02
1496 1 -6.57055603920081239e+02
1497 1 -2.84779570994059270e+02
1498 1 1.82959890283013152e+02
1499 1 -2.17767241376613924e+02
1500 1 -5.18283671432370284e+02
1501 1 3.08789678325199759e+01
1502 1 7.73280381775244109e+02
1503 1 4.84049718360917439e+02
1504 1 1.59475282090552763e+01
1505 1 9.23548775413423755e+01
1506 1 1.18045345182024084e+03
1507 1 1.90749589180817310e+02
1508 1 4.18532172201956485e+02
1509 1 -8.08730709127583935e+01
1510 1 3.32943429623121290e+02
1511 1 3.65306816903897698e+02
1512 1 -2.17939102989589287e+02
1513 1 -5.30592367438787882e+00
1514 1 4.47386043417244935e+02
1515 1 3.57366150915083551e+01
1516 1 1.97595495213130796e+01
1517 1 1.87851182892788415e+02
1518 1 1.25322335246571288e+03
1519 1 3.18989712979225089e+02
1520 1 4.30342112562784848e+02
1521 1 -4.65889580694477786e+02
1522 1 -2.65338913568174166e+03
1523 1 -5.87831576043288209e+01
1524 1 -3.08672346679217924e+02
1525 1 -1.12054387795837954e+02
1526 1 7.69537698598927932e+02
1527 1 4.56926330877333520e+00
1528 1 -1.04842561455973254e+02
1529 1 2.86689691242482354e+02
1530 1 -5.56248452505374644e+02
1531 1 -1.06852200316039543e+02
1532 1 -2.35996596657667759e+01
1533 1 1.69823081709359428e+02
1534 1 5.51901712900039684e+02
1535 1 -6.79782605745891004e+01
1536 1 3.66950779666477786e+02
1537 1 8.78465416502346102e+02
1538 1 4.45210040489701953e+02
1539 1 3.43599720442857972e+02
1540 1 1.01716822405743144e+02
1541 1 7.17579259300349861e+01
1542 1 2.39641707666882780e+02
1543 1 1.05318083267748491e+02
1544 1 2.99794562159769157e+02
1545 1 1.82154612754566102e+02
1546 1 1.39552534407059852e+02
1547 1 5.51795421185081025e+01
1548 1 3.42574017965447581e+02
1549 1 1.79192290594121516e+02
1550 1 1.78264961328597656e+03
1551 1 7.70500399915764120e+01
1552 1 5.25069366897543114e+03
1553 1 4.71462588248502129e+02
1554 1 -2.90341201668661633e+01
1555 1 -5.42840139259164758e+01
1556 1 6.26886230692290312e+01
1557 1 5.31077837289716328e+01
1558 1 7.63728807025236307e+01
1559 1 2.92466473012920076e+01
1560 1 1.42827853784265670e+02
1561 1 1.67322582670264751e+02
1562 1 1.03330454452382966e+02
1563 1 1.51282289114047813e+02
1564 1 2.44698305864080567e+02
1565 1 1.64955385543036499e+02
1566 1 4.81155078089908415e+01
1567 1 6.80066465786923402e+01
1568 1 7.26564954433671915e+01
1569 1 -5.71811561121440874e+01
1570 1 -3.25756112632156558e+01
1571 1 -1.59665971880711510e+02
1572 1 -2.57736037439466315e+02
1573 1 -2.37495412831846409e+02
1574 1 -2.39320984294849666e+02
1575 1 -1.08220744475214659e+02
1576 1 8.56117030119518176e+02
1577 1 -3.27187319607783536e+02
1578 1 -8.41285543905810584e+01
1579 1 -9.18254313079760180e+01
1580 1 -1.00030433162295060e+03
1581 1 9.09983267046814603e+02
1582 1 6.20620663595926999e+02
1583 1 1.52687892324456726e+02
1584 1 -1.57144973108257972e+02
1585 1 -3.05322710757236244e+01
1586 1 2.16862074704706288e+02
1587 1 -1.55456091758401200e+01
1588 1 8.13531708830163041e+01
1589 1 6.12664228736050404e+02
1590 1 2.12826560330368210e+02
1591 1 1.04567875918573094e+02
1592 1 -1.67787852320669657e+02
1593 1 -3.23112811805573941e+01
1594 1 -1.55982559573236415e+02
1595 1 -2.38115918093874086e+02
1596 1 1.93124142837773611e+01
1597 1 4.88661544421365136e+02
1598 1 4.98053570340922107e+01
1599 1 1.04151922685346861e+02
1600 1 1.66171963297796850e+02
1601 1 3.27961557308160536e+02
1602 1 2.13371592916514260e+02
1603 1 3.51786862817610995e+02
1604 1 7.08544646480345591e+02
1605 1 7.08898608615746070e+02
1606 1 3.79716312074019555e+01
1607 1 1.34198053004344814e+02
1608 1 3.87662148286754444e+01
1609 1 8.78189976778436829e+01
1610 1 4.56451343760205219e+01
1611 1 3.39934037323874279e+01
1612 1 3.43522251041502358e+01
1613 1 1.85228037186998336e+01
1614 1 3.29330925177220735e+01
1615 1 -5.54828215033122305e+01
1616 1 -3.04227197413013739e+00
1617 1 4.57252888905255475e+01
1618 1 1.63964244818487487e+02
1619 1 2.93840986273526177e+01
1620 1 -1.11668738604609246e+02
1621 1 -6.33375384302574389e+02
1622 1 -1.74554137149919853e+02
1623 1 -1.99524045230607811e+02
1624 1 -2.28941948221748142e+01
1625 1 -4.48987378808110861e+02
1626 1 -1.13985673725962442e+02
1627 1 5.54682915312598439e+01
1628 1 -1.47518183979338851e+01
1629 1 -1.05968720243318174e+02
1630 1 1.93784052745178798e+02
1631 1 1.10733500580449913e+02
1632 1 6.77220719458128002e+01
1633 1 1.43387518671787888e+02
1634 1 7.26381613710353093e+01
1635 1 4.21326185133021980e+01
1636 1 1.15682029788352558e+01
1637 1 2.14075828013200145e+01
1638 1 2.44695956458091679e+01
1639 1 6.27193862485109221e+00
1640 1 -1.30050157885672313e+01
1641 1 -5.10902413894528564e+01
1642 1 -4.62469347652422069e+00
1643 1 -3.41908084740597502e+01
1644 1 1.74483143940958846e-01
1645 1 4.36054886128199826e+00
1646 1 -6.03476587083226512e+00
1647 1 5.04980619437470395e+01
1648 1 8.57812647407304496e+01
1649 1 5.59490806749398715e+01
1650 1 -2.42261603762354980e+01
1651 1 3.67452434004103807e+01
1652 1 -5.50918059318501150e+02
1653 1 -7.98609660059018097e+02
1654 1 -6.24763656126780347e+02
1655 1 -3.44155641851332859e+02
1656 1 -4.17925543110823401e+03
1657 1 -7.07646487516243155e+02
1658 1 -1.61436953890894893e+03
1659 1 3.09372759837668596e+01
1660 1 8.06371093753244494e+00
1661 1 5.11139156304452513e+02
1662 1 1.98904677963459591e+02
1663 1 -1.73322992069349255e+02
1664 1 -4.36316541377512692e+01
1665 1 -4.90503542815939824e+01
1666 1 -9.29855602784452913e+01
1667 1 -9.35185880951712249e+01
1668 1 -2.62453965746468327e+02
1669 1 -1.61928895453585184e+01
1670 1 2.76210732498369573e+01
1671 1 5.13828519358856283e+02
1672 1 9.96995490320189646e+01
1673 1 2.78135687087064071e+02
1674 1 3.58506899705636158e+02
1675 1 1.92369157348004990e+02
1676 1 3.54837768027291133e+02
1677 1 2.81536219038893819e+02
1678 1 7.90379003325535791e+02
1679 1 2.27078621830000230e+02
1680 1 3.26951828264746894e+02
1681 1 7.15881179032136004e+01
1682 1 -5.94578333917130522e+02
1683 1 -5.33061721175120482e+01
1684 1 -2.23037260621489139e+02
1685 1 -5.83139741614881473e+02
1686 1 -8.80424730052361156e+02
1687 1 -5.14715683719769004e+02
1688 1 -6.03264257018624448e+02
1689 1 -1.73552040954550080e+02
1690 1 -3.43840964123161598e+02
1691 1 -2.16718392166968897e+02
1692 1 -7.78844782515784431e+01
1693 1 -1.91725534276690496e+02
1694 1 2.27801823981823645e+02
1695 1 -3.37310446316243642e+01
1696 1 -3.30600927604871572e+02
1697 1 -1.38551874265306736e+02
1698 1 -2.83036437204418860e+02
1699 1 -1.36811139139574692e+02
1700 1 -7.96487866850655450e+01
1701 1 4.14661923398550300e+02
1702 1 2.34441959592611568e+02
1703 1 5.34458195297415202e+01
1704 1 7.27555806789055168e+02
1705 1 1.64217828043231179e+03
1706 1 6.21154610562807306e+02
1707 1 -4.28424421486325926e+01
1708 1 -7.19723016893963859e+02
1709 1 -7.62430043569893883e+01
1710 1 8.89568005454793536e+01
1711 1 8.66835642901058492e+01
1712 1 1.41859537855286874e+02
1713 1 -2.12301136147644449e+01
1714 1 -2.76612911070578093e+02
1715 1 -4.65429206104094135e+02
1716 1 -2.58754034584954752e+02
1717 1 -4.98171084707243438e+02
1718 1 -1.67246084773460552e+02
1719 1 2.83751497576505756e+01
1720 1 3.31571391635330386e+01
1721 1 1.94795511391803444e+02
1722 1 1.05967140727269140e+02
1723 1 1.94650986199601448e+02
1724 1 2.74446099717481466e+01
1725 1 1.50013803540461765e+02
1726 1 7.96607535912341831e+01
1727 1 1.03789587196424222e+02
1728 1 -3.11729119736290485e+01
1729 1 6.15778530135760818e+01
1730 1 -7.33492294533058242e+01
1731 1 -3.14430752444817870e+02
1732 1 -8.27662732788149015e+02
1733 1 -6.57384089485437499e+01
1734 1 -1.94156619191040505e+02
1735 1 -5.15089449402981586e+02
1736 1 -4.76697149236200573e+02
1737 1 -3.56088701338281908e+02
1738 1 -3.60664768077189024e+02
1739 1 -7.06906801073691327e+02
1740 1 -1.11546663686632860e+03
1741 1 -9.54210493001281293e+02
1742 1 -1.12052579300453132e+02
1743 1 -3.68170191370549333e+02
1744 1 -4.37850346625279258e+02
1745 1 -5.93302731056439256e+02
1746 1 1.65631230265010657e+02
1747 1 1.05499443342652995e+02
1748 1 2.64963801420261859e+02
1749 1 5.13824482401581335e+01
1750 1 9.08869627934737991e+01
1751 1 5.53897888640412432e+01
1752 1 -7.98110540824448407e+01
1753 1 -3.52176382886908641e+01
1754 1 -3.24625641511732965e+01
1755 1 -1.44619215289174548e+02
1756 1 -1.12537146951654165e+02
1757 1 -8.10183382780685690e+01
1758 1 -9.55800530622863533e+01
1759 1 -3.76332995429738792e+00
1760 1 -3.77766451216424031e+01
1761 1 -3.05828135456669123e+01
1762 1 -2.19964055910763136e+02
1763 1 -3.74196027664222413e+02
1764 1 -1.41548525521957117e+02
1765 1 -1.77732527298115798e+02
1766 1 -2.69946571080768820e+02
1767 1 -3.47415572677957641e+02
1768 1 -5.70498080920126199e+02
1769 1 -9.55055418219004991e+02
1770 1 -6.10752204757473351e+02
1771 1 -6.25516117586908877e+02
1772 1 -4.58554378878118939e+02
1773 1 -3.27719806991694759e+03
1774 1 -1.09030693971697974e+03
1775 1 -4.79000585278215851e+02
1776 1 -5.87408784642279670e+02
1777 1 -1.33494332813033964e+02
1778 1 4.61846168536757659e+02
1779 1 1.64001904049040604e+02
1780 1 3.27412295347030636e+02
1781 1 -2.01212988209587451e+02
1782 1 -1.54460130932744192e+02
1783 1 2.07981610808322472e+02
1784 1 4.75692298312598552e+02
1785 1 9.19382367627202711e+02
1786 1 -2.74090228732506205e+02
1787 1 3.26839560867182513e+02
1788 1 3.26934560781295318e+02
1789 1 1.23666479302391110e+02
1790 1 2.37936304014651171e+02
1791 1 1.01214669259664504e+02
1792 1 7.67802208947215235e+01
1793 1 2.73648636579609558e+02
1794 1 5.52635302690156891e+02
1795 1 5.10499949307405302e+02
1796 1 2.45353876231061037e+02
1797 1 6.23574960132589879e+01
1798 1 -1.28579800211463066e+02
1799 1 6.33635808989845373e+02
1800 1 -5.76755311552520311e+01
1801 1 5.01426598859996275e+01
1802 1 1.84134203043304433e+03
1803 1 -5.09786605230545320e+02
1804 1 -7.09233088879498155e+01
1805 1 -8.97043110482893695e+01
1806 1 3.00679280675212972e+01
1807 1 3.34480879135066473e+01
1808 1 2.81701105748171017e+01
1809 1 -3.89462010537917322e+01
1810 1 -8.14231481346211439e+00
1811 1 -5.57117569782831978e+01
1812 1 -7.52219043567582730e+01
1813 1 -3.64075715013449965e+01
1814 1 -2.27532335692469161e+01
1815 1 -1.46548115358324509e+01
1816 1 -8.11037707992839216e+01
1817 1 -4.73514135052268514e+01
1818 1 -4.43914093456621188e+01
1819 1 -5.60790335542056297e+01
1820 1 -1.03161072047898642e+03
1821 1 -2.94133051920188245e+03
1822 1 -6.97645928137641363e+02
1823 1 -1.12970832239297897e+03
1824 1 -8.14331069504058632e+02
1825 1 7.82604329335317061e+02
1826 1 1.39523694030924207e+03
1827 1 -4.87732773081158211e+03
1828 1 -2.27595364987278828e+02
1829 1 -9.15105139608816557e+02
1830 1 -1.10333947032671267e+03
1831 1 -2.15908015315636612e+03
1832 1 -2.98613175554724421e+02
1833 1 -3.36989382943222154e+02
1834 1 -5.36654319380283027e+02
1835 1 -7.80569588163712211e+01
1836 1 -3.05926689991860712e+03
1837 1 1.47505665868341475e+03
1838 1 -7.86250292202088417e+02
1839 1 6.36687926301285302e+02
1840 1 3.19471153840158422e+02
1841 1 4.76020790759789520e+02
1842 1 5.63248266208109044e+02
1843 1 1.32836698701062460e+03
1844 1 3.99366797459877887e+02
1845 1 2.21281577366935977e+02
1846 1 2.86586130999946214e+01
1847 1 -7.20165171185741428e+01
1848 1 -9.81789916608429962e+02
1849 1 1.88244741953013346e+02
1850 1 8.73266968665721350e+01
1851 1 2.91716410149956118e+02
1852 1 1.22815591698865632e+02
1853 1 7.92514306018394450e+01
1854 1 7.63527959812336263e+01
1855 1 2.79820158133681751e+01
1856 1 -3.78980717860086997e+01
1857 1 -2.38679815143027696e+01
1858 1 6.22078851350838935e+00
1859 1 3.50101882925947505e+00
1860 1 6.19052474021772881e+00
1861 1 3.33501543971546681e+01
1862 1 1.84412218914917787e+01
1863 1 2.69665078002916232e+02
1864 1 3.25595342315012704e+03
1865 1 1.97300822013040346e+02
1866 1 6.44897677138642962e+01
1867 1 -5.98252622132941156e+02
1868 1 -8.17234367438985458e+01
1869 1 -4.68565062265098277e+02
1870 1 8.24455690467091329e-01
1871 1 1.38226062304643779e+03
1872 1 6.83784206313796972e+02
1873 1 3.60137952537962633e+02
1874 1 7.15229940060004452e+01
1875 1 4.41079136698298782e+02
1876 1 1.84340233920745732e+02
1877 1 1.26897927747945516e+02
1878 1 2.67257639810365468e+01
1879 1 -7.21109117096335126e+01
1880 1 8.71459755536362337e+01
1881 1 1.79590983588614023e+02
1882 1 1.22582002607352592e+02
1883 1 1.42020462884888133e+02
1884 1 4.32786153260785440e+01
1885 1 1.59337610942698149e+02
1886 1 2.13696341016857218e+02
1887 1 1.58603896519610032e+02
1888 1 5.11572952405980914e+02
1889 1 6.49070819012007973e+02
1890 1 5.25552189435796322e+02
1891 1 8.32688442140651659e+02
1892 1 -5.25279038710012742e+02
1893 1 -3.58570459182561535e+02
1894 1 -3.81134824889872789e+02
1895 1 -1.28026389605131470e+02
1896 1 -6.19552049317586352e+02
1897 1 2.13969187728956911e+02
1898 1 -1.78576714105446484e+02
1899 1 -3.28673709606278862e+02
1900 1 -5.35481922811838515e+01
1901 1 -1.35215030216064690e+02
1902 1 -5.99944239359911435e+01
1903 1 3.82040126248435911e+02
1904 1 9.60691189551250915e+01
1905 1 -2.46791799775884364e+01
1906 1 2.55943529559830921e+02
1907 1 1.14626116201361100e+02
1908 1 7.46167722462601546e+01
1909 1 2.71427147833522781e+02
1910 1 2.95334033340623705e+02
1911 1 2.07761069016608531e+02
1912 1 2.27249195600363777e+02
1913 1 2.59777929463416626e+02
1914 1 2.49631399396036755e+02
1915 1 2.29914170118892855e+02
1916 1 8.85758773350178217e+02
1917 1 9.74370263121868902e+02
1918 1 6.80751616468955376e+02
1919 1 2.90563850279957933e+02
1920 1 5.58098257785266696e+02
1921 1 5.97459628927136350e+02
1922 1 5.86088302516167005e+02
1923 1 3.00478022258594251e+02
1924 1 1.51557195426022554e+03
1925 1 1.54864850345407285e+03
1926 1 1.30794160511080861e+02
1927 1 -8.57599111484801426e+01
1928 1 -4.19971618310263537e+01
1929 1 3.12986831716731189e+01
1930 1 9.03082848537605855e+02
1931 1 5.25326114781308817e+01
1932 1 1.52656523310089796e+01
1933 1 1.01926248887448054e+02
1934 1 -8.36903510996127125e+02
1935 1 -1.28442615679267959e+02
1936 1 -5.62967322769513316e+02
1937 1 -4.59054519606377426e+02
1938 1 -2.92991321194192324e+02
1939 1 -3.94345204525956206e+02
1940 1 -3.11870883258425692e+02
1941 1 -5.20547682005335332e+02
1942 1 -4.38966846936338300e+02
1943 1 -5.81077909713781196e+02
1944 1 -7.70309375977564059e+02
1945 1 -1.86409034041614575e+02
1946 1 -2.82469480002188540e+01
1947 1 -3.01791907405290885e+02
1948 1 -3.85650205431970292e+01
1949 1 1.25057457656025576e+02
1950 1 2.58325156646553928e+01
1951 1 4.33505428924377838e+02
1952 1 5.61811406151462279e+02
1953 1 2.43847618038752415e+02
1954 1 1.91084240064764373e+02
1955 1 1.55562222116951119e+02
1956 1 8.76522576640424518e+01
1957 1 2.10728646049000702e+02
1958 1 1.96038972982013405e+02
1959 1 2.63327187948342555e+02
1960 1 3.27427261196693166e+02
1961 1 2.98852739869010747e+02
1962 1 1.83686923542048930e+02
1963 1 2.30742922716121257e+02
1964 1 3.86457958412243670e+02
1965 1 2.02027657231204557e+02
1966 1 1.58977750721652399e+02
1967 1 2.49958372038633655e+02
1968 1 1.97372602394205472e+02
1969 1 -8.34882244833827798e+01
1970 1 7.35193664581487099e+01
1971 1 -5.05432417657769548e+01
1972 1 -4.16792414513126857e+02
1973 1 -1.92419817917480884e+02
1974 1 -1.28926389531941879e+02
1975 1 -3.31852837659985710e+02
1976 1 -2.33680816267072260e+02
1977 1 -3.29309261747601738e+02
1978 1 -3.75595392803845300e+02
1979 1 -4.67079525547210210e+02
1980 1 -3.10852114899335731e+02
1981 1 -1.86037931320488497e+02
1982 1 -2.16455733768238088e+03
1983 1 -6.89461866246638056e+03
1984 1 2.53241142305028143e+03
1985 1 6.94583191921126627e+02
1986 1 -2.16227046255843458e+00
1987 1 1.14061096700667420e+02
1988 1 1.09282815921389620e+01
1989 1 1.14897228645444088e+02
1990 1 -1.11471942524467494e+02
1991 1 -2.21660587103278459e+02
1992 1 -2.56430666448588738e+02
1993 1 -6.41841648680397270e+02
1994 1 -3.97675951133936508e+02
1995 1 6.03553125694558048e+02
1996 1 9.24480263259712842e+01
1997 1 1.11821382913761809e+02
1998 1 -8.48672905406745173e+01
1999 1 4.33947090853271504e+02
2000 1 -1.31044292353534981e+01
2001 1 -7.25321360829733521e+02
2002 1 -3.61422189284731303e+02
2003 1 2.76860562952850557e+02
2004 1 -5.76093290386704879e+01
2005 1 1.58411027171885991e+02
2006 1 2.42523645816495076e+02
2007 1 8.92613485476731285e+02
2008 1 5.78779550853629985e+02
2009 1 4.07314699794040536e+01
2010 1 -6.60088063101189846e+01
2011 1 -1.27301288936306264e+02
2012 1 -3.56991078251121621e+02
2013 1 -2.94236569385685300e+02
2014 1 -1.60210267150724547e+02
2015 1 -5.85678354437908069e+02
2016 1 -7.69670026661312704e+02
2017 1 -3.14324992714462041e+02
2018 1 -3.84246026589100097e+02
2019 1 -8.56807308701285365e+02
2020 1 -1.66784580438097088e+01
2021 1 -2.65619810977515094e+01
2022 1 1.83520168942957862e+00
2023 1 -2.53244226336038523e+01
2024 1 -1.56211762554539945e+02
2025 1 -1.25616534150790216e+02
2026 1 -8.64570962273181323e+01
2027 1 1.10829162890384140e+02
2028 1 -8.21393938855744210e+01
2029 1 -2.31927384905811465e+02
2030 1 -9.67449116589035896e+01
2031 1 -8.79322220841650761e+01
2032 1 1.89428633909635465e+02
2033 1 6.85464662309732148e+02
2034 1 4.90334860786422198e+01
2035 1 3.31782047891739808e+02
2036 1 2.10300364615077598e+02
2037 1 1.82137459589476620e+01
2038 1 6.73511772648697615e+01
2039 1 3.66146556961038527e+01
2040 1 -8.76898984540677588e+02
2041 1 -2.65679927165780271e+02
2042 1 2.96449557883113535e+01
2043 1 -1.84693156272613038e+02
2044 1 -3.14259437125885938e+02
2045 1 -5.07147686375740932e+02
2046 1 -1.95999086015042309e+02
2047 1 -1.89647831160685485e+02
2048 1 -4.17306131872179378e+02
2049 1 -6.61830591583596402e+01
2050 1 -6.75020652819609666e+01
2051 1 1.95470418253349081e+01
2052 1 -4.11832279166258672e+01
2053 1 -1.12907656032860174e+02
2054 1 -1.32729305669113501e+02
2055 1 2.25120213916886939e+02
2056 1 1.61132961795901153e+01
2057 1 -1.55049594430092924e+02
2058 1 -2.37152132660745821e+02
2059 1 3.83666478896520630e+02
2060 1 4.61863503384016553e+02
2061 1 -7.69387998743357798e+02
2062 1 -2.46351496308639781e+02
2063 1 2.16504903192725806e+02
2064 1 6.39007803032308630e+02
2065 1 2.60994711393403918e+02
2066 1 3.38421409064639420e+02
2067 1 4.12731569615856188e+02
2068 1 4.24605037330245523e+02
2069 1 2.58527492622442367e+02
2070 1 1.97604949720984763e+02
2071 1 3.35774808878439842e+02
2072 1 -1.96361559405334667e+01
2073 1 9.13062052276248437e+02
2074 1 -1.41014604866386577e+02
2075 1 -2.50165154903466345e+02
2076 1 2.54032088068386969e+02
2077 1 2.49570994526807056e+02
2078 1 3.20472818056959227e+02
2079 1 2.63020974154418298e+02
2080 1 -2.04358482655434841e+02
2081 1 -1.96939772604959899e+02
2082 1 -5.60645543249548496e+02
2083 1 5.83292310385937185e+01
2084 1 2.42650828033565880e+01
2085 1 -1.63990618690255161e+01
2086 1 -1.17730890015382812e+01
2087 1 1.76344435576006937e+01
2088 1 -2.05041516891412705e+01
2089 1 -8.06598210942514982e+01
2090 1 -3.40295399927777069e+01
2091 1 1.10417060153946395e+02
2092 1 2.02368762440533288e+02
2093 1 1.02658661418946309e+02
2094 1 2.42764840502203299e+02
2095 1 3.07637892252477855e+02
2096 1 3.07335494537582179e+02
2097 1 2.16855951265519849e+02
2098 1 3.81992729251908884e+02
2099 1 -4.26627112787847764e+01
2100 1 -8.66689559846066118e+01
2101 1 -9.73596414211802994e+01
2102 1 2.42843481801503103e+01
2103 1 -1.51140745376334507e+02
2104 1 1.28593138352199020e+02
2105 1 -1.10414530132245961e-01
2106 1 3.28058249548049446e+02
2107 1 3.32230172273728272e+02
2108 1 4.09896809017103180e+02
2109 1 2.87173617719113565e+02
2110 1 6.02142411646038553e+01
2111 1 5.20003090763589970e+00
2112 1 1.12182525133846397e+02
2113 1 -7.67209919470295404e+02
2114 1 1.40047865506399845e+01
2115 1 1.11347520907132562e+02
2116 1 4.51497428798449846e+02
2117 1 1.77759298910760606e+02
2118 1 3.20937672011470511e+02
2119 1 4.83170133123843257e+01
2120 1 6.10214616960084442e+01
2121 1 4.52573807312241101e+01
2122 1 -1.19840078206286549e+02
2123 1 4.89828108245357825e+01
2124 1 2.75663392329625935e+02
2125 1 8.48459263620565935e+02
2126 1 -2.37240407332122658e+02
2127 1 1.14729579758802902e+03
2128 1 6.01152269274120954e+02
2129 1 7.46761328195913165e+02
2130 1 1.04883275236142453e+02
2131 1 -1.47065924439628861e+03
2132 1 -4.97934505623017969e+02
2133 1 2.10431034239827937e+02
2134 1 2.46894601200113840e+02
2135 1 1.97874264296736044e+02
2136 1 8.65959288006265240e+01
2137 1 -1.25999828395751001e+03
2138 1 -2.73218939074648176e+02
2139 1 -3.94800032893274420e+03
2140 1 -3.57140369770243467e+02
2141 1 -6.39067598238366600e+02
2142 1 -2.64368231136654458e+02
2143 1 -3.73423413662288851e+02
2144 1 -4.55576000391178127e+02
2145 1 -3.54061806380245343e+02
2146 1 -6.08159189128122875e+02
2147 1 -4.98190072092994399e+02
2148 1 5.99400979185310661e+01
2149 1 -3.09523533070991839e+01
2150 1 2.14726231957974392e+01
2151 1 -2.47550212222460360e+01
2152 1 -2.92200172506058031e+01
2153 1 -2.50632258187556900e+01
2154 1 -3.68595329729983803e+01
2155 1 -2.55723728359176832e+01
2156 1 -2.43790130713599910e+03
2157 1 7.58383817196353561e+02
2158 1 -1.63818465387298971e+02
2159 1 -2.38019710397670508e+02
2160 1 -1.09162183569783252e+02
2161 1 -1.52498853647297778e+02
2162 1 -2.04128081956112979e+01
2163 1 -1.92859930925183427e+01
2164 1 3.34720011106370407e+02
2165 1 1.22237036361314438e+02
2166 1 7.23124981064544414e+01
2167 1 -2.08676883419243318e+01
2168 1 -5.60319707582270965e+01
2169 1 -2.77756133116340251e+01
2170 1 -2.91293027423921096e+01
2171 1 -3.75963956668978696e+01
2172 1 -1.26466768257784756e+00
2173 1 1.82527389447492965e+02
2174 1 2.95936388340290762e+02
2175 1 3.05411271583247469e+02
2176 1 1.09785336897243255e+02
2177 1 9.07066105247014178e+01
2178 1 5.48763714134423850e+01
2179 1 -4.53446595689807680e+02
2180 1 -2.92660343633347644e+01
2181 1 -4.77669074940707446e+02
2182 1 -8.75192538807271603e+02
2183 1 -3.66615751927671056e+02
2184 1 -3.53940100184529626e+02
2185 1 7.78004795843861814e+01
2186 1 -3.27509327167749404e+02
2187 1 -1.29828937918158545e+02
2188 1 -2.45397487081196353e+01
2189 1 3.48447108136059001e+01
2190 1 6.69450351762029641e+01
2191 1 6.65832766943170498e+01
2192 1 4.65032405945221115e+01
2193 1 8.88221609566305261e+01
2194 1 4.50813779724106780e+01
2195 1 6.10277175934490401e+00
2196 1 -6.64851602228729188e+00
2197 1 3.33314769032380056e+01
2198 1 8.93171312915464739e+01
2199 1 9.41424243759833530e+02
2200 1 1.00365427833784463e+03
2201 1 5.92347563322237747e+01
2202 1 -1.85955039032332650e+02
2203 1 -3.16229335476508417e+01
2204 1 -2.54627521782846827e+02
2205 1 -1.85513771385418210e+02
2206 1 -2.11529175879015071e+02
2207 1 -5.06886809337431998e+01
2208 1 -9.17418433604572442e+02
2209 1 -3.65084851017071060e+02
2210 1 -3.20296317687646308e+02
2211 1 -8.98667499438234501e+01
2212 1 -1.08913136158384756e+01
2213 1 -3.71253359735476351e+01
2214 1 -9.94091911580682677e+01
2215 1 -6.33997983071602604e+01
2216 1 1.18315867957162794e+02
2217 1 -4.28087942227095919e+00
2218 1 2.67503175890734219e+01
2219 1 3.90841746269078882e+01
2220 1 -6.40532289626855913e+02
2221 1 -3.57299779125825182e+02
2222 1 -9.37688493873367179e+02
2223 1 3.81710154490455182e+02
2224 1 7.26030354360544408e+01
2225 1 -1.88114065235241583e+03
2226 1 3.09781443215821355e+02
2227 1 1.09772532090903727e+01
2228 1 -1.62682421114450062e+03
2229 1 -1.02480852345946190e+02
2230 1 4.63110874589665514e+02
2231 1 3.55070611225897039e+01
2232 1 -6.97253302994011079e+01
2233 1 -6.29614238367857411e+01
2234 1 -2.21757433458602662e+02
2235 1 7.88800258557089080e+01
2236 1 -1.52694010611668233e+02
2237 1 -2.27840552294253484e+02
2238 1 -1.66856252611850010e+02
2239 1 3.57800473879946310e+02
2240 1 -4.38321091704358309e+02
2241 1 1.30473096273243345e+03
2242 1 5.22662062389796006e+02
2243 1 -2.58522033540554594e+03
2244 1 -5.78717494916650412e+03
2245 1 -1.10675030398782155e+03
2246 1 1.11189806581540708e+02
2247 1 -6.67780084918819284e+02
2248 1 -2.28315793078213346e+03
2249 1 2.00808593984774035e+02
2250 1 1.86085885183747052e+02
2251 1 -1.79459440127040779e+02
2252 1 4.18056242357713543e+01
2253 1 7.24770825545006687e+01
2254 1 -1.10371015968436552e+02
2255 1 8.31075437834379500e+02
2256 1 -9.25929941761192410e+00
2257 1 5.31468350624058132e+01
2258 1 1.05160994780484387e+02
2259 1 8.25862320516916100e+01
2260 1 1.06659323558781352e+02
2261 1 7.02458703884241800e+01
2262 1 1.01916174830370025e+02
2263 1 3.14687042105487365e+02
2264 1 -1.81474895353108366e+02
2265 1 -1.66584034486807667e+02
2266 1 -1.69143872903262633e+02
2267 1 -1.81495066753845492e+02
2268 1 -2.57782819324014383e+02
2269 1 -1.56317165395117961e+01
2270 1 2.33270923520630973e+01
2271 1 2.59251644909009883e+02
2272 1 7.59520135960096354e+01
2273 1 6.41182815899622796e+01
2274 1 -2.29568056536337162e-01
2275 1 -4.78722906257920044e+01
2276 1 7.03393829982985750e+01
2277 1 -2.21859011181804448e+02
2278 1 -9.84023526879221180e+01
2279 1 -1.23003769402017568e+02
2280 1 2.16746951962029289e+03
2281 1 2.09095327908939089e+03
2282 1 2.63123344837901868e+03
2283 1 -2.73675996834040143e+03
2284 1 -2.07809506629002362e+03
2285 1 7.74489301729716573e+01
2286 1 1.33408897977645239e+02
2287 1 1.86699126808634105e+02
2288 1 5.23382332197130950e+02
2289 1 7.42113083003401471e+02
2290 1 2.76622736353157677e+02
2291 1 2.10788599914443722e+02
2292 1 5.72936994409579441e+01
2293 1 8.89364696766473344e+01
2294 1 5.60559225061383444e+01
2295 1 6.77077928895376289e+01
2296 1 5.96789104143050864e+01
2297 1 -2.25597289012772444e+03
2298 1 -1.27124595872751047e+03
2299 1 -1.26127199776718430e+03
2300 1 -1.76913148101188085e+03
2301 1 -1.24410866394435061e+03
2302 1 -1.67889304279145972e+03
2303 1 9.05145481790420376e+02
2304 1 -3.11666952340271905e+02
2305 1 -1.43311433057188395e+02
2306 1 -1.87515296854846753e+02
2307 1 2.48129701645337292e+02
2308 1 7.41325793131668664e+00
2309 1 3.06399486264475307e+01
2310 1 9.02513905802364604e+01
2311 1 2.64992826627112777e+02
2312 1 1.77546353734012484e+02
2313 1 9.28791228193216284e+02
2314 1 1.17029225670748224e+03
2315 1 -6.16496243227249352e+02
2316 1 5.11482440419673082e+02
2317 1 2.07909125868032334e+02
2318 1 3.34010852161020040e+01
2319 1 -3.12258488063344032e+02
2320 1 -2.06080305044343987e+02
2321 1 -3.70668855938185118e+02
2322 1 -1.69020437819475518e+02
2323 1 -2.07485574763622679e+02
2324 1 7.26002056750635688e+02
2325 1 2.56580767117849689e+02
2326 1 4.47332028883851081e+01
2327 1 1.67669542909039748e+01
2328 1 -7.01054032756369736e+01
2329 1 -1.18688569026507025e+02
2330 1 -3.12411656172046946e+02
2331 1 -1.93420882181926743e+02
2332 1 -5.52282581694693135e+02
2333 1 1.87220405038231974e+02
2334 1 1.58696771678559912e+02
2335 1 9.38370703452098240e+01
2336 1 1.11132175731250712e+02
2337 1 1.90780726295198484e+01
2338 1 -1.86716028690687779e+01
2339 1 4.14071451416922855e+02
2340 1 -1.95603620880434420e+02
2341 1 1.18108831396464484e+03
2342 1 2.12752413804003083e+02
2343 1 -1.00181472355359887e+02
2344 1 1.25520884086831202e+02
2345 1 8.67978056085521814e+01
2346 1 2.71541256838098320e+02
2347 1 2.21955808717866631e+02
2348 1 -2.28081046055630111e+02
2349 1 -4.18203680805223769e+02
2350 1 -3.75454133255291765e+02
2351 1 -2.39010465421325080e+02
2352 1 1.50408388034004105e+02
2353 1 1.32666029364245105e+02
2354 1 1.21044333105532644e+02
2355 1 1.02464036175501533e+02
2356 1 2.41710307759375979e+02
2357 1 2.91712898090182875e+02
2358 1 1.38152182454327232e+02
2359 1 -1.62247180504043996e+02
2360 1 2.93713238728094154e+02
2361 1 6.16691331404957666e+01
2362 1 1.05873511809242302e+01
2363 1 1.56567883497524747e+02
2364 1 7.65380783450300299e+01
2365 1 2.43126336503695519e+01
2366 1 2.84083662522387108e+01
2367 1 1.12077349709883620e+02
2368 1 6.47886536324131015e+01
2369 1 -8.05600191627685547e+00
2370 1 -5.34875379740189985e+01
2371 1 3.56583115139631161e+02
2372 1 6.65242638219841297e+02
2373 1 1.96233676514339038e+02
2374 1 3.25715661028130341e+02
2375 1 1.69152469969896401e+02
2376 1 1.93222121344178305e+02
2377 1 1.80076255857681616e+02
2378 1 1.35768629758287194e+01
2379 1 8.84532734439022406e+00
2380 1 -2.84492555646365624e+01
2381 1 -6.37053452081536079e+02
2382 1 9.30596031180892957e+00
2383 1 -9.61998845559850935e+01
2384 1 -3.70231238812322943e+01
2385 1 -1.16201481111362440e+02
2386 1 2.44042670150171290e+02
2387 1 1.10827553227351501e+02
2388 1 -1.89187487837927755e+01
2389 1 6.85460790164681271e+01
2390 1 6.59092500881703813e+01
2391 1 2.74951290669370394e+02
2392 1 8.16036485323151396e+02
2393 1 8.75616471674747231e+02
2394 1 -9.82730348483352259e+02
2395 1 -8.13176719124889701e+02
2396 1 -1.33741627674096151e+01
2397 1 -3.48033035581137597e+02
2398 1 -5.04709596463637354e+02
2399 1 -7.95319185018934945e+02
2400 1 7.17696097216609587e+02
2401 1 3.95681228606889874e+01
2402 1 3.99574525163991666e+02
2403 1 3.40487585295481722e+02
2404 1 1.35003487586253385e+02
2405 1 2.56423078981285755e+02
2406 1 -1.32723367188231464e+02
2407 1 -2.86964608479057517e+02
2408 1 -1.20459755643061143e+02
2409 1 6.05940359059886262e+01
2410 1 2.02529960725287594e+02
2411 1 1.40729293966272877e+02
2412 1 -2.42012663665040236e+02
2413 1 -8.37668035853911988e+02
2414 1 5.81968388207073346e+01
2415 1 1.03664140878070427e+02
2416 1 1.03560702027151621e+02
2417 1 2.10182952723135685e+02
2418 1 2.80765091728621314e+02
2419 1 3.10322112787668800e+02
2420 1 2.21811989351286542e+02
2421 1 1.85771032112896307e+02
2422 1 -2.10536090547190753e+01
2423 1 4.82596559792524374e+02
2424 1 2.45222706960100339e+02
2425 1 -1.13340967248191120e+02
2426 1 -5.15566132643419905e+01
2427 1 -7.40375370557538304e+01
2428 1 -3.25835680478804761e+02
2429 1 -8.18344835528054517e+01
2430 1 -1.32266202844534433e+02
2431 1 1.09985842755951097e+02
2432 1 1.67794398938899974e+02
2433 1 3.24390753667627450e+02
2434 1 3.55383263886611871e+02
2435 1 3.47396851615059973e+02
2436 1 -1.74339620327190339e+01
2437 1 2.89914079388909052e+01
2438 1 2.02952305290834772e+02
2439 1 2.04958321448564618e+02
2440 1 1.20819782674405630e+02
2441 1 2.97414119460550239e+02
2442 1 -2.24323799946971036e+02
2443 1 -2.43954637471802386e+02
2444 1 -4.86792698749414910e+02
2445 1 5.43229185025439563e+01
2446 1 -2.13394133488517866e+02
2447 1 -1.61632526740596313e+03
2448 1 -2.36280469949350027e+03
2449 1 -1.15218204883808494e+03
2450 1 -1.62066871500052184e+03
2451 1 7.34340275496064351e+02
2452 1 5.28846109639323799e+02
2453 1 -3.45986816971005595e+01
2454 1 -5.98780695334105104e+01
2455 1 4.93280279093623221e+02
2456 1 -2.98403828756936775e+02
2457 1 -7.55754092999115983e+01
2458 1 -1.29180319923638383e+01
2459 1 1.16450757173822282e+02
2460 1 2.00589080577221672e+01
2461 1 -2.11387287503091727e+02
2462 1 -1.57450263634675878e+02
2463 1 -1.22509673395310628e+02
2464 1 -9.57445634202442193e+01
2465 1 -8.66127778131215820e+01
2466 1 -1.36242037967200815e+02
2467 1 -1.38229658891852665e+02
2468 1 -1.96381127832023509e+02
2469 1 -1.95069305848079836e+02
2470 1 -1.39035527609452970e+02
2471 1 -2.38590293226081457e+02
2472 1 -2.96129466217819015e+02
2473 1 5.97763478849677838e+01
2474 1 -5.27135356096707426e+01
2475 1 2.48472050958606978e+01
2476 1 1.37102523570647747e+02
2477 1 -1.30735219927262938e+03
2478 1 -3.44941760791226272e+02
2479 1 -7.87000082172730799e+01
2480 1 -9.77552106036188064e+01
2481 1 1.03230820163507175e+02
2482 1 3.06362023781419339e+02
2483 1 2.51992917194566823e+00
2484 1 2.20594321960103343e+02
2485 1 -2.92392430094035163e+01
2486 1 2.06590072900845485e+02
2487 1 -1.26184122392331986e+02
2488 1 2.57196403143389773e+02
2489 1 1.84186752927333771e+02
2490 1 7.96594850680269531e+01
2491 1 -1.96382536826178551e+02
2492 1 2.17707277891299711e+01
2493 1 -6.15167590869758296e+00
2494 1 5.96064654451599409e+01
2495 1 -6.40526498776927724e+02
2496 1 -6.87881370638905992e+02
2497 1 -1.02231886179971625e+02
2498 1 -4.36819729479757427e+02
2499 1 1.39955665990395573e+03
2500 1 -4.70169786839254868e+01
2501 1 2.96077210900408147e+02
2502 1 -1.37595616006979373e+01
2503 1 -3.73706920764512518e+02
2504 1 -3.29173104936591656e+01
2505 1 -1.14486081524552446e+03
2506 1 -1.05023396602621438e+03
2507 1 1.56919508680828130e+03
2508 1 2.02475501297634139e+02
2509 1 -4.54795090680959106e+02
2510 1 -2.90661433454356313e+02
2511 1 1.15352744515360204e+01
2512 1 4.42246146521417316e+01
2513 1 6.15669166666794467e+02
2514 1 7.91529301507476021e+02
2515 1 1.48808440393447872e+00
2516 1 5.40990926233675964e+02
2517 1 -4.09891708549975704e+02
2518 1 -1.05048277853788747e+02
2519 1 -1.31839114313454132e+02
2520 1 8.73965335318952043e+02
2521 1 1.68272820589792502e+02
2522 1 -1.14722104598343577e+02
2523 1 -1.87287238270362934e+02
2524 1 -2.44078825775464537e+02
2525 1 -2.87548427357870821e+02
2526 1 9.02415030778408891e+01
2527 1 4.70136911564453541e+01
2528 1 -1.13384478469714594e+02
2529 1 -4.25575658337155929e+01
2530 1 -2.47109844137402206e+01
2531 1 -2.86332725279731562e+02
2532 1 -1.02295730176456857e+03
2533 1 -1.43566618240230082e+03
2534 1 5.69693986852576131e+02
2535 1 4.87681006798282510e+02
2536 1 -2.23396575664712191e+03
2537 1 -1.18728883226131347e+03
2538 1 3.18149209481306571e+03
2539 1 -5.24859582774477076e+03
2540 1 -3.55353833081154107e+02
2541 1 3.95310090477310439e+02
2542 1 1.62966495656845336e+03
2543 1 6.87660945035951613e+02
2544 1 7.07065265915969007e+02
2545 1 8.10750963251130941e+01
2546 1 4.02711768443944948e+02
2547 1 4.73550397836459979e+02
2548 1 1.99040557416764727e+02
2549 1 7.37947483120070302e+01
2550 1 1.34628070636052030e+03
2551 1 3.54066021407991059e+02
2552 1 4.61787069998107498e+01
2553 1 8.32628371972424191e+01
2554 1 -1.17581864947635586e+03
2555 1 -5.97134141468909434e+02
2556 1 4.82041977040259496e+02
2557 1 2.62988274790998332e+02
2558 1 -1.30626424152889371e+02
2559 1 2.16181660763001730e+02
2560 1 7.11357332110889757e+01
2561 1 1.91990151190085612e+02
2562 1 2.43207883011449837e+02
2563 1 -5.00162512057771664e+01
2564 1 1.02071927360341164e+01
2565 1 -1.27254993597820288e+02
2566 1 -1.04142041017968182e+02
2567 1 -2.32235109974825832e+02
2568 1 7.04777903197708042e+01
2569 1 -8.36052035649601777e+01
2570 1 2.22717935886774768e+02
2571 1 8.93668891688558489e+01
2572 1 1.58143007956879984e+02
2573 1 1.01179383105997800e+02
2574 1 7.07469308838655024e+01
2575 1 6.40553129312493070e+02
2576 1 6.49727992335095763e+01
2577 1 -1.73957260647571132e+02
2578 1 5.67984216850066105e+02
2579 1 1.67055121037984520e+02
2580 1 -4.58396978025778253e+02
2581 1 -2.64986930766391211e+01
2582 1 6.65483747486272819e+02
2583 1 1.56531708976893447e+03
2584 1 2.52959153658149080e+03
2585 1 1.60797483183151303e+03
2586 1 -6.28707069468862301e+02
2587 1 -4.95606529052715985e+02
2588 1 1.19302498921804113e+03
2589 1 8.15073060508284925e+02
2590 1 3.57899889982327863e+02
2591 1 5.33518025974631314e+02
2592 1 3.68106858960175259e+02
2593 1 2.39240008740376311e+02
2594 1 2.07117943848893702e+02
2595 1 -3.80367229427487644e+02
2596 1 -3.58117648960014606e+02
2597 1 1.26829387795862726e+03
2598 1 -2.71316856347065904e+00
2599 1 3.27589510195922969e+02
2600 1 5.61289663926558433e+02
2601 1 4.55614764732507695e+02
2602 1 5.29147549417031314e+02
2603 1 -2.28540202751577999e+03
2604 1 -1.74144965071596789e+03
2605 1 -5.08908004102564519e+02
2606 1 6.85723867359623256e+01
2607 1 9.15943345665630737e+00
2608 1 9.18257424233511017e+01
2609 1 4.12149241875509460e+02
2610 1 3.68511678447904330e+02
2611 1 -1.23839549164832260e+03
2612 1 -1.95306359102507463e+03
2613 1 -2.97226001640078857e+03
2614 1 -1.33727673093386670e+02
2615 1 5.66367077543596906e+02
2616 1 4.24945392807981307e+02
2617 1 -1.62695434373346700e+02
2618 1 -2.93243247691201418e+02
2619 1 -6.26422618095711883e+01
2620 1 -1.60041499918858051e+02
2621 1 -1.39911664180326341e+02
2622 1 -1.78026375889014076e+02
2623 1 -1.28635094699919428e+01
2624 1 -3.86168075109399282e+01
2625 1 -1.08201048102388768e+02
2626 1 -2.77868433024183332e+02
2627 1 -4.23974617004443644e+02
2628 1 -7.37671559911029931e+02
2629 1 -1.55969478785688949e+02
2630 1 -3.27529550781807529e+02
2631 1 -4.10749856777238563e+02
2632 1 -3.01279337488498754e+02
2633 1 -1.32480689080814244e+02
2634 1 9.40917051544521499e+00
2635 1 -2.04502791527447869e+02
2636 1 -4.88191901544386724e+02
2637 1 -4.83352691801979120e+02
2638 1 2.41259142699792505e+02
2639 1 -1.26320781285801232e+02
2640 1 -1.90462167607465375e+02
2641 1 -7.07509205644132976e+02
2642 1 6.67050658768270750e+02
2643 1 -2.79951759229532001e+02
2644 1 -1.29392671485209036e+02
2645 1 -2.60251045672562896e+02
2646 1 -1.23914444840234012e+02
2647 1 -9.97649035589610520e+01
2648 1 -1.32141973137983058e+02
2649 1 -2.74738416055326525e+02
2650 1 6.06869119948657243e+01
2651 1 -5.69705308975890432e+01
2652 1 -3.31221735318333685e+01
2653 1 -7.58953787150576744e+01
2654 1 4.98268514747543136e+01
2655 1 -1.99766820935305077e+02
2656 1 -2.35503232032643723e+02
2657 1 -1.84793017516536111e+02
2658 1 -4.83909581854167300e+02
2659 1 -3.30992394034790038e+02
2660 1 -8.56300831018800608e+01
2661 1 -6.44404769335944479e+02
2662 1 -5.89002086794070806e+02
2663 1 -3.43599110871360608e+02
2664 1 -2.83276653496223503e+02
2665 1 -2.10537740505188140e+02
2666 1 1.27576555977587944e+02
2667 1 2.89219968318392375e+02
2668 1 5.40512093630610480e+02
2669 1 8.64242513773946598e+02
2670 1 7.16558367182410620e+02
2671 1 2.19482396889415014e+02
2672 1 8.55555775333717520e+02
2673 1 1.05891453608495468e+02
2674 1 2.77932884470630313e+02
2675 1 3.41386485931136633e+02
2676 1 8.09930975035978236e+02
2677 1 5.57765943596661828e+02
2678 1 1.42831554002180894e+02
2679 1 4.20531030437802713e+02
2680 1 -9.04316607452749679e+01
2681 1 -1.71853912180963455e+01
2682 1 3.46292633636066682e+02
2683 1 6.91536015270063444e+01
2684 1 -4.76611918894364308e+01
2685 1 5.77392755822906111e+02
2686 1 2.40986039069284317e+02
2687 1 -9.76552356640291777e+01
2688 1 -1.10012415809630397e+02
2689 1 -2.12268236209056198e+02
2690 1 4.52453063876474005e+02
2691 1 3.67004917379624203e+02
2692 1 2.54083357031134710e+03
2693 1 -6.47513128686728976e+01
2694 1 -7.71842825687491427e+02
2695 1 -6.43351734583013979e+01
2696 1 9.41063646194109253e+01
2697 1 2.22228423271238262e+03
2698 1 2.88437384490498971e+02
2699 1 9.99067174708052335e+02
2700 1 1.27736939874528389e+03
2701 1 6.15839873956522183e+02
2702 1 3.21272648967170369e+02
2703 1 2.61805929990439608e+02
2704 1 5.03716727846523838e+02
2705 1 7.38033859762264939e+01
2706 1 3.08687149097481324e+02
2707 1 7.28231926799359854e+01
2708 1 4.37821724834506298e+01
2709 1 1.19688479735381520e+02
2710 1 -2.57063744353365428e+03
2711 1 -3.33016566438303300e+02
2712 1 -9.34548499314049309e+02
2713 1 -4.41118866872879039e+02
2714 1 2.16229416195173314e+02
2715 1 -5.13702296388032451e+01
2716 1 -5.45176267221516184e+01
2717 1 -5.27286234652474661e+01
2718 1 -4.49292008958617259e+01
2719 1 1.09498835227105047e+02
2720 1 3.49706064649039732e+01
2721 1 6.16191295595566331e+01
2722 1 1.59022461876775833e+03
2723 1 -7.67704652297028247e+02
2724 1 -3.68694150819528204e+02
2725 1 -2.04918378985510330e+01
2726 1 6.40306376299229100e+02
2727 1 1.90676478541172514e+02
2728 1 -1.12012046272012839e+02
2729 1 -6.27458934200736849e+01
2730 1 -3.59098685620346714e+02
2731 1 9.31172194446767350e+01
2732 1 -7.68619242516792980e+01
2733 1 -8.54679501991505219e+00
2734 1 -2.00382383059670666e+01
2735 1 4.43848020463760591e+01
2736 1 -4.67197982313356448e+01
2737 1 2.18356726591180195e+00
2738 1 2.85392006865346310e+01
2739 1 -3.38123361293671536e+01
2740 1 2.01329457361549032e+02
2741 1 6.23200533618133363e+02
2742 1 -7.45339743430296409e+01
2743 1 -9.17642230971519837e+01
2744 1 1.76789544281833059e+02
2745 1 4.13332148507489521e+01
2746 1 1.17567138192670356e+02
2747 1 3.17009994029743496e+02
2748 1 3.41204535002788418e+02
2749 1 1.41939840044033008e+03
2750 1 6.78502901420383864e+02
2751 1 9.22418796916364272e+02
2752 1 1.03296074183816174e+02
2753 1 3.78968486954779635e+01
2754 1 -5.08771742221254186e+00
2755 1 5.14951005641220689e+01
2756 1 2.10620287555422948e+02
2757 1 2.34102494097622099e+02
2758 1 6.40946388075836921e+01
2759 1 -9.98106427604249006e+02
2760 1 -2.19912247818364335e+02
2761 1 2.36830528637096478e+02
2762 1 6.60094642202636095e+01
2763 1 5.23970497945030544e+01
2764 1 5.17421916688159556e+01
2765 1 1.12008132340245652e+02
2766 1 7.70086287549479067e+01
2767 1 -1.51114570032207656e+01
2768 1 3.16306868893206676e+01
2769 1 2.02613236763359232e+01
2770 1 5.28440475249227291e+01
2771 1 -2.28899460960570922e+00
2772 1 -6.69616028491935026e+02
2773 1 -1.04162659395920582e+03
2774 1 -8.60769586634450093e+02
2775 1 -6.09465392919859823e+02
2776 1 -5.95854461203583469e+02
2777 1 -8.86506400684081314e+02
2778 1 -5.32680830324389490e+02
2779 1 3.27319636313506948e+01
2780 1 -8.80630533995282121e+02
2781 1 1.76885956164922618e+03
2782 1 -3.19636259121647072e+02
2783 1 -4.95562096359967938e+02
2784 1 -4.22070930988238615e+02
2785 1 -6.67784463446375156e+01
2786 1 1.39142848469572215e+02
2787 1 4.69217004945342978e+02
2788 1 -3.76268667969399189e+02
2789 1 3.67484685000219997e+02
2790 1 2.15884569974301883e+02
2791 1 -4.84418363775879016e+02
2792 1 5.65754425279304058e+01
2793 1 -3.65571034635783505e+01
2794 1 3.73799334837904610e+02
2795 1 -2.54025443745165717e+02
2796 1 -3.72951720290508263e+02
2797 1 -2.17245566497155011e+02
2798 1 -9.50959813356864032e+01
2799 1 4.34237664180046750e+02
2800 1 5.65886697974524736e+02
2801 1 9.76868468931598244e+01
2802 1 3.21516069499602509e+02
2803 1 3.14720702743329412e+02
2804 1 4.12063095271786608e+02
2805 1 2.72709506192287392e+02
2806 1 1.91781953471124297e+02
2807 1 3.72409296698678759e+02
2808 1 7.77486533735178398e+01
2809 1 2.21163036113401233e+02
2810 1 3.46551665516844992e+02
2811 1 4.35140984629560933e+02
2812 1 2.65324450376029517e+02
2813 1 6.23852289634912836e+02
2814 1 1.66000695953391642e+02
2815 1 4.42543110329816727e+02
2816 1 -2.81091887319617967e+02
2817 1 -6.01614807406468458e+02
2818 1 -4.59233591616431696e+01
2819 1 -2.26945828108529383e+02
2820 1 -2.96887780097710220e+02
2821 1 -8.75976609916276203e+01
2822 1 5.53774576956696706e+02
2823 1 2.93607595308891227e+01
2824 1 6.09749936135699954e+02
2825 1 -4.88014880162281372e+02
2826 1 2.63785196991747114e+02
2827 1 2.76868056178943903e+02
2828 1 3.63975780972440418e+02
2829 1 2.48927438020218506e+03
2830 1 2.15485267954627204e+02
2831 1 -1.15492593700056233e+02
2832 1 -3.93606089066209449e+02
2833 1 1.09327525867039344e+03
2834 1 3.12950706022259965e+02
2835 1 -3.90084764272450428e+01
2836 1 -1.34127431708147674e+03
2837 1 1.26186869604086667e+02
2838 1 1.17982714153357122e+01
2839 1 -5.79137033665949730e+01
2840 1 1.29126504631905277e+02
2841 1 7.53154462879579683e+01
2842 1 3.64059160766418373e+01
2843 1 2.26803598682453668e+02
2844 1 1.68286870762632418e+02
2845 1 9.35161757733689427e+01
2846 1 7.91318381245970244e+01
2847 1 1.17535904023891518e+02
2848 1 -5.28823634589102085e+02
2849 1 -3.79381928474253812e+02
2850 1 -8.56847865920964864e+02
2851 1 -4.34987509877544255e+02
2852 1 1.72049799237179855e+02
2853 1 2.75030316943691346e+01
2854 1 -2.18035237334074772e+01
2855 1 4.20215451542553975e+00
2856 1 -1.18524327543993895e+01
2857 1 9.36004326947948329e-01
2858 1 -1.70763234319269941e+02
2859 1 -3.17698289161742252e+02
2860 1 -4.37146091385916009e+02
2861 1 -3.93131154951028350e+02
2862 1 -1.00821448723378603e+03
2863 1 -2.81373243636605537e+02
2864 1 -6.47663335538007459e+02
2865 1 -1.33068533514305659e+03
2866 1 -3.45582391240275342e+02
2867 1 -1.57220708029904046e+02
2868 1 -1.59232272265784491e+01
2869 1 3.75529772727547240e+01
2870 1 2.19687198051196262e+01
2871 1 -1.34848627612703268e+02
2872 1 -2.92902530508783855e+02
2873 1 -4.21004096551268390e+01
2874 1 -1.74318277936131125e+02
2875 1 -5.25325317898978206e+00
2876 1 4.64550514427956713e+01
2877 1 1.34290089260631788e+02
2878 1 8.08294494172120494e+02
2879 1 2.53232893994757973e+02
2880 1 4.17636322960041014e+02
2881 1 3.92205707431153371e+02
2882 1 4.47643035955293215e+02
2883 1 6.12570421867601908e+02
2884 1 -8.47233794022473830e+02
2885 1 8.94084950527710589e+02
2886 1 1.67489352853242579e+01
2887 1 -1.73449918671868431e+02
2888 1 -1.07386315675990829e+02
2889 1 7.26899322553873759e+01
2890 1 3.27809080737216732e+02
2891 1 5.99848116529597277e+01
2892 1 5.57244165454437393e+02
2893 1 -4.05274068643526206e+01
2894 1 -1.45043160258183718e+02
2895 1 6.94659620251601808e+01
2896 1 -5.50547465108416887e+01
2897 1 -2.15692751927129258e+01
2898 1 -9.39645014640418168e+01
2899 1 -4.11267384081206870e+01
2900 1 -4.29412548257882065e+01
2901 1 -2.73508385750231788e+01
2902 1 7.19166122796482732e+00
2903 1 3.65036331378896364e+01
2904 1 -1.31461678766479167e+02
2905 1 -1.53927207868706978e+03
2906 1 -6.03206536386859739e+02
2907 1 -2.28351759438642148e+02
2908 1 -3.02595199835536368e+03
2909 1 -5.88638403417296786e+02
2910 1 -1.85333633229799034e+03
2911 1 -7.66910282716291931e+02
2912 1 -1.56175138143790605e+03
2913 1 -7.52785352110596136e+02
2914 1 -9.10187722057369683e+02
2915 1 -9.38807528474631908e+02
2916 1 -3.56695460345163838e+02
2917 1 5.13852983923348347e+02
2918 1 1.85971480401803797e+03
2919 1 -1.62562163452266645e+03
2920 1 -3.48669600014400612e+03
2921 1 -6.98091456807266331e+03
2922 1 1.99802370681362572e+03
2923 1 -5.94361068241971452e+02
2924 1 -3.53851321087117981e+02
2925 1 -2.35515315994366119e+03
2926 1 -1.86745671794259761e+03
2927 1 1.54913500754563142e+03
2928 1 3.37751346835900449e+02
2929 1 7.36452758999400544e+02
2930 1 -1.33634961607196516e+02
2931 1 5.25566128215899084e+02
2932 1 -5.39841245705073675e+02
2933 1 -2.87771279739603006e+03
2934 1 2.72932641093519692e+02
2935 1 -2.87011659506233263e+00
2936 1 5.98707150569050341e+01
2937 1 2.88525199077512475e+01
2938 1 -8.17852295813621311e+01
2939 1 2.79641749175304284e+01
2940 1 3.61145896175182145e+02
2941 1 1.71095316625758278e+03
2942 1 4.34695812129780137e+01
2943 1 -8.40184904790606538e+02
2944 1 3.37214636484183572e+01
2945 1 4.02632127280343241e+02
2946 1 1.11501638497230687e+02
2947 1 3.22218019324034628e+02
2948 1 -2.56350986993449339e+02
2949 1 1.49960950890940723e+02
2950 1 5.00539431655378664e+01
2951 1 2.27657838235889841e+02
2952 1 3.13678877156845147e+02
2953 1 2.71258049503294217e+02
2954 1 2.94967973603567032e+02
2955 1 2.31926772119403552e+02
2956 1 2.88886762918860370e+02
2957 1 2.34410556033566820e+02
2958 1 2.44918079166472864e+02
2959 1 2.51483495138155945e+02
2960 1 2.55810258944146057e+02
2961 1 2.33935180600222338e+02
2962 1 2.26854509738376976e+02
2963 1 3.87210012055858556e+02
2964 1 3.21160311507925769e+02
2965 1 1.97217795468470825e+02
2966 1 2.70267996062369377e+02
2967 1 4.75749241162525436e+02
2968 1 4.30576931243856166e+02
2969 1 1.90880155239276718e+02
2970 1 8.70644296389421015e+02
2971 1 6.50845594233802672e+02
2972 1 -1.05887057703765981e+03
2973 1 -2.52027077347172764e+02
2974 1 7.75314873796837674e+01
2975 1 -2.39867981738847895e+01
2976 1 1.98701175995023050e+02
2977 1 -5.08908837164431915e+01
2978 1 -1.53721943379645722e+02
2979 1 4.85339549430094692e+01
2980 1 2.41478955260289013e+02
2981 1 2.00739503020503747e+02
2982 1 1.17507683390169134e+02
2983 1 1.42771312268896878e+02
2984 1 9.06678249431798093e+01
2985 1 4.62834073701388604e+01
2986 1 -3.32963812450049488e+02
2987 1 -8.28727188183927751e+02
2988 1 -4.66642072777340843e+02
2989 1 -1.05917529650075508e+02
2990 1 3.10886640507818726e+01
2991 1 2.81019967334947864e+02
2992 1 2.38978256224040194e+02
2993 1 4.21200179305271433e+02
2994 1 2.08204374156601006e+02
2995 1 1.70719023153387980e+02
2996 1 -1.23299023139984655e+02
2997 1 3.13136305452327235e+02
2998 1 -2.12784270571015526e+02
2999 1 2.89491356613809842e+02
3000 1 2.29874628392035270e+01
3001 1 4.18736493471340481e+01
3002 1 -4.83608064419167476e+02
3003 1 -1.43800620488126782e+02
3004 1 -5.80781515840407451e+02
3005 1 -1.68713754486551750e+02
3006 1 -5.90554988454217877e+01
3007 1 1.31834667662697882e+02
3008 1 1.85390271581794195e+03
3009 1 1.17955246621285355e+01
3010 1 1.31049339820234110e+02
3011 1 1.80068469504488007e+02
3012 1 3.25876485008914813e+02
3013 1 -3.48084481928409900e+02
3014 1 5.89290051594761280e+02
3015 1 -1.22223138479012604e+02
3016 1 4.17485337254695708e+02
3017 1 3.37000804336800002e+02
3018 1 -8.51643574908070150e+02
3019 1 -3.81497139962210724e+02
3020 1 -1.32647535876537472e+03
3021 1 -1.71294209388011211e+02
3022 1 4.10906531048151351e+02
3023 1 3.97146802123500891e+02
3024 1 1.50752958422309149e+02
3025 1 5.85260579826375420e+02
3026 1 2.41272208586873518e+01
3027 1 1.45158920435818260e+02
3028 1 6.11250299588264241e+01
3029 1 3.21231578125348335e+02
3030 1 -3.15869546713204441e+00
3031 1 9.65184919732962356e+01
3032 1 5.70671699899080451e+01
3033 1 2.36725767212524488e+02
3034 1 4.87898588963496920e+01
3035 1 3.71684869119602979e+02
3036 1 1.68848377706427840e+02
3037 1 2.58392392508654495e+02
3038 1 -2.87800107761963808e+01
3039 1 -1.27702003978037638e+02
3040 1 -1.39770987432945361e+02
3041 1 -2.15874657633644404e+02
3042 1 -6.14816790332131518e+02
3043 1 -2.87160745069190796e+02
3044 1 -1.01647602221227075e+02
3045 1 -3.91430270317173495e+02
3046 1 -4.38687333895361974e+02
3047 1 -3.96636826758153518e+02
3048 1 -3.40608833648774464e+02
3049 1 -1.02946708287213414e+03
3050 1 -5.89290482941016194e+02
3051 1 -6.02387012035063876e+01
3052 1 -3.62256728724410493e+02
3053 1 9.94652731095621689e+00
3054 1 -3.89778064044144523e+00
3055 1 -2.45013965296372120e+01
3056 1 -2.82853106262270558e+02
3057 1 -3.13010314609248098e+02
3058 1 -1.17219430313589328e+02
3059 1 -3.41017791864000870e+01
3060 1 -1.11718262396974481e+02
3061 1 -3.67614692399478031e+02
3062 1 -4.60428911367604371e+02
3063 1 -5.93569489244833477e+01
3064 1 -1.49777538264289120e+02
3065 1 2.61443163185314972e+02
3066 1 -4.04319197975802354e+01
3067 1 1.62812816908926692e+02
3068 1 2.20004298153441823e+02
3069 1 1.35644854930621477e+02
3070 1 3.08904389214964397e+02
3071 1 1.47732218739917727e+02
3072 1 -2.98319712626702227e+01
3073 1 -2.45652959513180377e+02
3074 1 -1.60074243435916834e+01
3075 1 -5.49206479519039362e+02
3076 1 -4.10263531408182871e+02
3077 1 1.81801388578557379e+02
3078 1 -2.83595493546304738e+02
3079 1 2.33627070763446682e+02
3080 1 1.13795206832680918e+02
3081 1 1.31491953528917431e+01
3082 1 -5.02250076040396323e+01
3083 1 -4.93125103643127659e+02
3084 1 -5.04734240856235985e+01
3085 1 -5.51340229644837549e+01
3086 1 3.24511714091173133e+02
3087 1 6.40177355710585800e+01
3088 1 -2.17987726985364418e+02
3089 1 -1.02472675294921114e+01
3090 1 -2.16922909854742329e+02
3091 1 -3.11655907849432083e+02
3092 1 -4.99543338846531128e+02
3093 1 -1.74783715406353082e+02
3094 1 -4.91977324002435736e+01
3095 1 -8.13583311362172310e+01
3096 1 3.80536659769048185e+02
3097 1 3.34024125220963811e+02
3098 1 2.11447402714761353e+02
3099 1 1.98785715088607219e+02
3100 1 -3.82147573060903937e+02
3101 1 -2.07312118638780561e+02
3102 1 -3.97640146584408797e+02
3103 1 2.08629888564044023e+02
3104 1 -2.73065151839883583e+02
3105 1 6.19589308397397431e+01
3106 1 -4.17153244113828450e+01
3107 1 3.81287060499591490e+01
3108 1 3.42305579308121935e+02
3109 1 2.13077655763245595e+01
3110 1 4.71596070746878468e+02
3111 1 -6.94629355085423441e+01
3112 1 1.97306295658253191e+02
3113 1 1.07252708696097599e+02
3114 1 -1.21602216494147697e+02
3115 1 -4.14828768047509868e+02
3116 1 -1.58930038122057269e+01
3117 1 8.50325637721038134e+01
3118 1 1.18613615160982562e+02
3119 1 -1.27900074955114391e+02
3120 1 3.46560972099028049e+02
3121 1 3.41844222067301757e+02
3122 1 2.83277853211757133e+02
3123 1 3.65171930708097079e+02
3124 1 5.84543346980715796e+02
3125 1 2.54725244298939714e+02
3126 1 4.42432841880726528e+02
3127 1 3.36475631466450693e+02
3128 1 7.73280142302808855e+01
3129 1 4.90734979001046625e+01
3130 1 3.06120017298237883e+01
3131 1 7.65533847687640616e+01
3132 1 1.31904140909696139e+02
3133 1 6.74428972078030142e+01
3134 1 9.35894270042028893e+01
3135 1 6.95278322331009093e+01
3136 1 4.76914786949046061e+02
3137 1 3.81088181384876293e+02
3138 1 1.13718209351760379e+02
3139 1 1.98802303820446355e+02
3140 1 3.09898229589500716e+02
3141 1 3.81506327299695229e+01
3142 1 1.68261420830110660e+03
3143 1 1.96532815093925876e+02
3144 1 -3.26999594195645614e+02
3145 1 1.93728228924555356e+03
3146 1 4.26497796816069012e+01
3147 1 1.54470576375097778e+02
3148 1 -6.91844681524223574e+02
3149 1 -4.40631179246667841e+02
3150 1 -5.14782587650696769e+02
3151 1 -6.31167002194132920e+02
3152 1 -6.99542796818695251e+02
3153 1 -5.17099925763604233e+02
3154 1 -1.03860350792006486e+02
3155 1 -3.94361575694915416e+02
3156 1 -3.80965020246853555e+02
3157 1 -9.90901282474690674e+01
3158 1 -3.18965672299236303e+02
3159 1 -4.10470086540777402e+02
3160 1 -4.48212305458877381e+02
3161 1 -4.48751385663672465e+02
3162 1 -4.65290855631820762e+02
3163 1 -1.23834716792002197e+01
3164 1 -3.54795470453469548e+01
3165 1 -2.28693997395655515e+01
3166 1 -1.31688346416620493e+03
3167 1 1.17195994005414514e+03
3168 1 1.76172345986350820e+02
3169 1 -2.73435006637436061e+02
3170 1 3.91813259515710541e+01
3171 1 -4.70526781670280741e+02
3172 1 -2.71078422610946461e+02
3173 1 4.00858880123113366e+01
3174 1 1.08823252209687610e+02
3175 1 1.79992788116076277e+01
3176 1 -7.69222446999206255e+01
3177 1 -3.73870000164339942e+01
3178 1 6.17327418334085394e+01
3179 1 1.04207696348017549e+02
3180 1 3.14784175584522252e+01
3181 1 2.21998305822293332e+02
3182 1 1.00672995068884276e+02
3183 1 -5.93837514298554879e+02
3184 1 -3.87988772689113603e+02
3185 1 -7.23468331166153803e+02
3186 1 -1.57965023817649296e+02
3187 1 -2.37540085979246783e+02
3188 1 -2.56808783318437062e+00
3189 1 6.84741649961293604e+01
3190 1 6.77299128198319096e+01
3191 1 6.29178666501611769e+03
3192 1 3.69802037470574376e+01
3193 1 1.56059254371774969e+01
3194 1 -6.33218351239016144e+01
3195 1 -2.87007339802867250e+02
3196 1 -2.24467392374698846e+02
3197 1 -8.80836944482791296e+02
3198 1 -3.82250475456090328e+02
3199 1 -6.98218966878199723e+01
3200 1 -3.72173914222209561e+01
3201 1 5.34374322021464764e+02
3202 1 3.68635658583008933e+02
3203 1 -1.86398697564280269e+02
3204 1 -1.26029714217465738e+02
3205 1 -2.57837048015000391e+02
3206 1 -5.36176015216115275e+02
3207 1 -1.60448921464491747e+02
3208 1 -1.66854532258964042e+02
3209 1 -4.08282196201432612e+02
3210 1 -2.08917090119601141e+02
3211 1 3.22436393902872680e+02
3212 1 -1.20785741770897334e+03
3213 1 -1.47460697658475306e+03
3214 1 7.97616383734105909e+01
3215 1 -4.36887043541169007e+01
3216 1 -1.31002849313448309e+02
3217 1 -1.28884837520863385e+02
3218 1 1.51341630290085448e+02
3219 1 1.17642065158769938e+02
3220 1 1.08119209869039310e+02
3221 1 5.94551965436235434e+01
3222 1 1.02688945453252288e+02
3223 1 1.04235306978918047e+02
3224 1 -5.51893694429968491e+01
3225 1 -1.83054125314259096e+02
3226 1 -1.60301126910897949e+02
3227 1 -3.64089117305899720e+02
3228 1 4.03478501352814192e+01
3229 1 1.58984372512364303e+02
3230 1 9.39020461901120171e+01
3231 1 1.29114384346871839e+03
3232 1 6.47905675876747068e+02
3233 1 7.48757121918624080e+02
3234 1 -4.76578630203257262e+02
3235 1 -4.88326622461095852e+01
3236 1 2.72073006220602974e+03
3237 1 -6.23331020060548440e+02
3238 1 1.89740441039124391e+02
3239 1 6.24258155338175058e+01
3240 1 6.65415460115895314e+01
3241 1 6.61296918150468827e+01
3242 1 -1.12154194943168795e+03
3243 1 6.94233643312935982e+01
3244 1 -8.24892303937474924e-01
3245 1 -1.06199015864023249e+03
3246 1 9.11348481757611808e+02
3247 1 2.61378273228313617e+02
3248 1 -1.34242164778756347e+02
3249 1 -2.57116900473785108e+02
3250 1 1.40372081335204911e+02
3251 1 7.66917825426227182e+01
3252 1 -3.00324189753886287e+02
3253 1 1.07479089609005314e+02
3254 1 1.20904599875742036e+02
3255 1 1.17766870811738585e+02
3256 1 4.60455879331117899e+01
3257 1 8.64179291321761127e+01
3258 1 2.88487101225395179e+02
3259 1 -6.23786908344852350e+02
3260 1 1.68088416098190805e+02
3261 1 1.69476420485082798e+02
3262 1 8.77718224537510849e+01
3263 1 -1.17109418646087235e+02
3264 1 1.41789734151527739e+02
3265 1 -1.77840848277760159e+02
3266 1 4.16905095784230468e+02
3267 1 -1.75204885079335298e+02
3268 1 9.27192792804680366e+00
3269 1 -5.39305403095642699e+00
3270 1 -4.30231653930203549e+02
3271 1 -1.46923935814295731e+02
3272 1 -8.12675793277312550e+01
3273 1 -4.86893698117048430e+01
3274 1 3.87687864659082095e+02
3275 1 -2.86127804329853859e+02
3276 1 -5.24905634112979101e+02
3277 1 -4.42737055749606384e+02
3278 1 -1.01289531803919715e+02
3279 1 6.22946296614843959e+02
3280 1 1.30025288265944624e+02
3281 1 2.46415326144612038e+02
3282 1 -7.12634992249812456e+01
3283 1 1.21289451299895381e+03
3284 1 7.20246015649896609e+00
3285 1 -4.69103682993359030e+02
3286 1 6.95808745346078013e+01
3287 1 7.24360456063193539e+01
3288 1 -1.12414290383074189e+02
3289 1 1.75909700799634606e+02
3290 1 3.06603446444554891e+02
3291 1 1.57965001880498818e+02
3292 1 1.56891493493030680e+02
3293 1 3.03900331855687398e+01
3294 1 2.26316519127385135e+02
3295 1 2.64530762431166693e+02
3296 1 9.25293469534381643e+01
3297 1 -9.18106951117575818e+01
3298 1 4.49671849683110167e+01
3299 1 5.47491078967272031e+01
3300 1 -1.15532271050175632e+03
3301 1 -6.18545048070948724e+02
3302 1 -5.35449373724014322e+02
3303 1 -1.49573552106487782e+01
3304 1 4.16920437787593471e+02
3305 1 -2.16123553440369079e+02
3306 1 -7.39215222284842071e+01
3307 1 -2.39081542613700407e+02
3308 1 -1.59023582477371832e+02
3309 1 -1.40625728794168765e+02
3310 1 -5.36580189730963184e+01
3311 1 -2.83771499563999498e+02
3312 1 -4.00354029622689950e+02
3313 1 -1.60194909904885151e+02
3314 1 -1.37463821909095003e+02
3315 1 -3.44883269542602704e+02
3316 1 -1.44053442160256360e+01
3317 1 1.17789961641765004e+02
3318 1 -1.24607211622485738e+03
3319 1 -1.12751381876010484e+02
3320 1 -5.36018641700146325e+00
3321 1 -1.48517351476639323e+01
3322 1 4.22286512010924923e+02
3323 1 1.92460148054203160e+02
3324 1 1.07473320245692719e+02
3325 1 1.68522516889849499e+02
3326 1 2.31613819982518351e+02
3327 1 2.22609283832826520e+02
3328 1 3.18186975408935496e+02
3329 1 4.07107703599142212e+02
3330 1 3.82913803368679169e+01
3331 1 1.20329481457534627e+02
3332 1 -3.28540161153995768e+02
3333 1 3.27674500844875141e+01
3334 1 -2.21633927118625138e+02
3335 1 -5.37690380025170384e+02
3336 1 1.71034922154157165e+01
3337 1 3.77436100915798960e+01
3338 1 7.41855324237843661e+01
3339 1 1.18210689712775476e+02
3340 1 3.00147399445739893e+02
3341 1 1.22293878473157929e+03
3342 1 -2.12949791007701521e+02
3343 1 -9.77981270849495274e+01
3344 1 -1.25123626725518690e+02
3345 1 -1.09796439007954689e+02
3346 1 1.45684455128301494e+02
3347 1 -1.53206042146819777e+03
3348 1 1.10909393038814369e+03
3349 1 5.52086916667395940e+02
3350 1 5.78616891938564891e+02
3351 1 -7.46367139518691147e+02
3352 1 -3.00630198887275526e+02
3353 1 -1.16758145115677853e+04
3354 1 3.29648254341895472e+03
3355 1 -2.23782246055399173e+03
3356 1 3.84377003938488997e+03
3357 1 7.54358040937535065e+02
3358 1 1.06715653711922573e+03
3359 1 7.04747436454544413e+02
3360 1 2.86277465145252279e+02
3361 1 4.25351410523081029e+02
3362 1 -2.50042760734304137e+00
3363 1 -4.01433656852142519e+02
3364 1 -4.15072174914947880e+02
3365 1 4.30952544278547521e+02
3366 1 -7.07962578018225202e+01
3367 1 9.61323673518526505e+01
3368 1 4.22115410270826658e+02
3369 1 1.58249063887725498e+02
3370 1 -5.05450593594920505e+01
3371 1 -1.44561481235739308e+02
3372 1 2.57424187518939007e+01
3373 1 -5.13936374975263348e+01
3374 1 3.35952647677823677e+02
3375 1 3.11140481384737427e+02
3376 1 -9.26831870517724865e-01
3377 1 -3.75338892327486121e+02
3378 1 1.45230034420309858e+03
3379 1 -3.62069658258579523e+02
3380 1 3.12100363555854756e+02
3381 1 8.19111478270917956e+01
3382 1 -1.03947087389810022e+02
3383 1 -1.38838533127094905e+02
3384 1 -2.52063284297532590e+02
3385 1 1.36878498822665364e+02
3386 1 -6.59796869555339072e+01
3387 1 5.09511545688389106e+02
3388 1 1.22763908745539584e+03
3389 1 -8.70697545115864955e+02
3390 1 8.66377152560276897e+01
3391 1 -4.39789105726215155e+02
3392 1 -4.01031429897340104e+02
3393 1 8.80811039358876116e+01
3394 1 2.01443934679176266e+02
3395 1 -4.14573156952893740e+01
3396 1 -9.73924669928420826e+02
3397 1 -1.25224745998725780e+03
3398 1 5.14233470741259637e+01
3399 1 2.94515014055362712e+02
3400 1 3.15782378402255574e+02
3401 1 -9.01105891768231828e+01
3402 1 -1.60250106938564045e+02
3403 1 -4.62043434641209956e+02
3404 1 -1.22883279060364816e+03
3405 1 1.36422469403482694e+02
3406 1 1.03585232772585925e+02
3407 1 -8.02008938986102066e+02
3408 1 -5.40536516829925745e+02
3409 1 -2.85540806592322554e+02
3410 1 -2.13993860632785555e+02
3411 1 -4.39165808792232895e+02
3412 1 1.15312522826711543e+01
3413 1 -2.12379755003255468e+01
3414 1 -1.40849123671925952e+02
3415 1 -1.54511346370524478e+01
3416 1 -6.08585018854162314e+01
3417 1 -1.22499246937090078e+02
3418 1 1.64631523642957120e+02
3419 1 -1.21361767696892315e+02
3420 1 -1.87496366872035537e+02
3421 1 -1.18589283728904263e+02
3422 1 -2.56457570127159102e+02
3423 1 -7.52978015357241475e+01
3424 1 8.76303185945434961e+01
3425 1 6.00040778897810583e+02
3426 1 2.94182477432904818e+02
3427 1 4.07217196820853530e+02
3428 1 3.21418844823250197e+02
3429 1 9.92512522762879144e+01
3430 1 1.33069910809265934e+02
3431 1 -6.42967785355549609e+02
3432 1 2.04867057516563818e+02
3433 1 -9.17419454079945780e+01
3434 1 -4.27869892549501074e+01
3435 1 -1.25803923821356122e+02
3436 1 1.05111646225293157e+02
3437 1 8.98357019920119910e+02
3438 1 -3.33185751656354626e+02
3439 1 -2.11953822689598564e+03
3440 1 2.12581938340727618e+02
3441 1 4.69118649911963075e+02
3442 1 4.22247882498100125e+02
3443 1 3.48721510720536855e+02
3444 1 7.08752764795598864e+02
3445 1 5.93390318914017598e+02
3446 1 1.10168794528375230e+02
3447 1 4.78055429991450609e+01
3448 1 -2.87542699686691776e+03
3449 1 8.88151448073957539e+01
3450 1 2.83547941257936031e+02
3451 1 -6.11655020235760674e+01
3452 1 -1.49253676620047013e+01
3453 1 1.92886909630994410e+01
3454 1 1.22542350569626180e+02
3455 1 -2.64543455269850583e+01
3456 1 1.39848347640482107e+00
3457 1 -2.43220913804528607e+01
3458 1 8.23225780744236459e+01
3459 1 1.84577329128461088e+02
3460 1 1.95124190004193224e+02
3461 1 5.78714352323393371e+01
3462 1 2.74465596948427617e+02
3463 1 4.43071562672509629e+02
3464 1 5.51857276294691587e+02
3465 1 1.86381749495371832e+03
3466 1 1.09908611391275394e+03
3467 1 6.26736527178902669e+00
3468 1 2.65777129467803206e+02
3469 1 3.27999740848887100e+01
3470 1 -3.12695003579415868e+02
3471 1 2.35306626253176290e+02
3472 1 1.61502087387422961e+02
3473 1 6.32483423210880105e+01
3474 1 6.00441341002390914e+01
3475 1 -4.52619152092129369e+01
3476 1 -1.35097231200749537e+01
3477 1 5.04912129227749595e+00
3478 1 -3.83274702792121957e+02
3479 1 -7.67806843489022640e+02
3480 1 3.79062575182697969e+02
3481 1 -4.20652854322521591e+02
3482 1 -2.30879904792805171e+01
3483 1 -1.05168083172059738e+02
3484 1 -1.44386566346038137e+02
3485 1 3.84590034526821626e+02
3486 1 -7.10397205681387618e+01
3487 1 -6.75625340772008144e+02
3488 1 -5.15367477876634211e+02
3489 1 -4.27857760027080531e+02
3490 1 2.38936939751850616e+02
3491 1 -1.93562053686237505e+02
3492 1 5.55497149804414903e+02
3493 1 7.12179397435206852e+02
3494 1 1.92401735849531434e+02
3495 1 1.51656104408642420e+02
3496 1 -3.50055109514543460e+02
3497 1 2.98943134579369541e+02
3498 1 5.02159146967293395e+02
3499 1 2.02275544154742704e+02
3500 1 2.40352946580969956e+02
3501 1 3.18584189383136504e+02
3502 1 -4.82163403382788886e+02
3503 1 -4.75205769655878100e+02
3504 1 -4.66231393769869953e+02
3505 1 -1.52503823873355117e+02
3506 1 -2.68520956310078645e+02
3507 1 1.98814871131100233e+02
3508 1 8.17377693950765547e+01
3509 1 1.50251135552984294e+02
3510 1 -1.32121765335212928e+02
3511 1 -2.34363201601763990e+02
3512 1 -3.46624688784199975e+02
3513 1 -5.99247020308458900e+02
3514 1 2.71031206853951723e+01
3515 1 -3.44935781984710417e+01
3516 1 1.79984463974073989e+01
3517 1 2.49380972834734223e+02
3518 1 1.54777809907087175e+02
3519 1 -2.66801302400127902e+01
3520 1 -3.92297237929180085e+02
3521 1 -1.77530724753445014e+02
3522 1 -9.03071739434611516e+01
3523 1 -2.27021250257436662e+02
3524 1 -2.63919933135498070e+02
3525 1 7.39763804811830283e+01
3526 1 1.26589663491110969e+02
3527 1 2.74535556028897702e+02
3528 1 3.96983883600819865e+02
3529 1 -1.45677190864775774e+01
3530 1 2.30448568351839391e+01
3531 1 -9.68111634416763245e+00
3532 1 -4.80880465063469043e+00
3533 1 6.34616839339780796e+01
3534 1 4.31426778413444509e+01
3535 1 -1.61861535482600539e+03
3536 1 -1.66560467790285884e+03
3537 1 -1.03739454053141867e+03
3538 1 -1.94861346009054523e+03
3539 1 -1.11018439122210452e+03
3540 1 3.32458281972795419e+02
3541 1 1.33120113734876838e+02
3542 1 3.91691959186575787e+01
3543 1 2.82840810847469299e+02
3544 1 -6.00339522238347286e+02
3545 1 3.13955247675504381e+02
3546 1 2.45338134855612310e+02
3547 1 3.95400482690644708e+02
3548 1 1.26517816196500561e+02
3549 1 1.48923257798039543e+02
3550 1 1.76329828303593956e+02
3551 1 2.25454120548519711e+02
3552 1 2.40606713268085656e+02
3553 1 3.25398187277288059e+02
3554 1 2.69784681005069842e+02
3555 1 2.47304301515388175e+02
3556 1 2.06184861131521501e+02
3557 1 4.93308932668255068e+02
3558 1 1.16154412269833131e+02
3559 1 3.66493815129237760e+02
3560 1 4.64382477154621768e+02
3561 1 3.52021191951929040e+02
3562 1 1.97543383099132086e+02
3563 1 -2.08328822481526544e+02
3564 1 -1.52316542357425277e+02
3565 1 2.17403544543488152e+02
3566 1 -5.69478401105726448e+02
3567 1 -1.33507317797405136e+02
3568 1 -4.24257239814237721e+01
3569 1 -2.42749778141281752e+02
3570 1 6.64279029730595028e+01
3571 1 -3.96294945061245699e+02
3572 1 -8.53972350073488656e+02
3573 1 -1.09690244120409398e+03
3574 1 2.41330505126528851e+03
3575 1 6.25162412985191736e+02
3576 1 8.47882330064031606e+01
3577 1 3.79255747247788122e+01
3578 1 -1.82192374510377739e+01
3579 1 9.36593496767619058e+01
3580 1 1.07435220436674854e+03
3581 1 -3.10900852678493152e+02
3582 1 -3.49340950634990577e+02
3583 1 -1.35436153729252328e+03
3584 1 4.16260682650147089e+02
3585 1 2.17617893282055093e+02
3586 1 5.47142384106478062e+02
3587 1 9.86692301249603929e+01
3588 1 7.57188512588293463e+01
3589 1 2.34956066603802839e+02
3590 1 -7.49334757890375158e+01
3591 1 -1.84863637165475609e+02
3592 1 -4.19764182024256172e+02
3593 1 -2.40655469803382204e+02
3594 1 -4.44366011599177142e+01
3595 1 -7.15832982760535856e+02
3596 1 -1.98934330849019261e+02
3597 1 -1.74930244654576063e+03
3598 1 4.48754029447576158e+02
3599 1 -9.17701635612796281e+02
3600 1 -5.92421619848725982e+02
3601 1 -5.39878006623790043e+02
3602 1 -4.80285086354919429e+02
3603 1 2.76268958169776852e+02
3604 1 4.59226423217857871e+01
3605 1 -4.71649109568663434e+01
3606 1 -6.04777249433996715e+01
3607 1 -2.29361668942564677e+02
3608 1 -8.14531572388050336e+01
3609 1 -2.09765722570181083e+02
3610 1 -2.65332675625564960e+01
3611 1 6.08713844161622660e+02
3612 1 2.28083791621503650e+02
3613 1 3.29799698882295331e+02
3614 1 8.44853877066527957e+02
3615 1 -8.05824286543072276e+02
3616 1 -2.26155078908811049e+02
3617 1 -3.70781484072016809e+01
3618 1 4.46353545155334018e+02
3619 1 1.38023708098305292e+02
3620 1 -6.44392662520458316e+02
3621 1 2.44472210685527926e+02
3622 1 1.93059445122112635e+02
3623 1 8.36292635572895904e+01
3624 1 -2.78805876169098269e+02
3625 1 -3.32039280684091409e+02
3626 1 1.16348604063059511e+02
3627 1 2.46831681969099719e+02
3628 1 2.58448472091766405e+02
3629 1 1.97049838284376300e+01
3630 1 1.59309833077977117e+02
3631 1 -1.40356839327054206e+00
3632 1 7.35510073394106882e+01
3633 1 3.45511413331875588e+02
3634 1 2.60623997116293253e+02
3635 1 -2.14737010391432523e+03
3636 1 1.67511981108942479e+02
3637 1 3.81587540514853288e+02
3638 1 3.97373242673249877e+02
3639 1 6.15619410342171705e+02
3640 1 2.40258783005706846e+02
3641 1 8.30745219604786058e+01
3642 1 2.56688756003693364e+01
3643 1 2.74059472392928399e+02
3644 1 5.00807633733827345e+02
3645 1 6.29057129756930749e+02
3646 1 2.16898881199009793e+03
3647 1 1.18533228018392288e+03
3648 1 3.05825359394912539e+02
3649 1 8.03174812190825662e+01
3650 1 2.70561731637949606e+02
3651 1 2.75682179866380483e+00
3652 1 -6.31051204337056447e+02
3653 1 -6.15061088651033174e+02
3654 1 -8.19586787039606861e+02
3655 1 -5.90540023279915204e+02
3656 1 -1.68710923950133122e+02
3657 1 -3.01749540586994272e+02
3658 1 -4.18930980427787119e+02
3659 1 -4.21775570818156666e+02
3660 1 -4.44824155934957275e+02
3661 1 -3.83601292082058592e+02
3662 1 -1.35553912986880132e+01
3663 1 -2.55253082369133199e+03
3664 1 -1.08078035887952112e+02
3665 1 2.38258173104348430e+02
3666 1 2.16682329592170248e+02
3667 1 9.40586164416226040e+01
3668 1 4.17955860452362273e+01
3669 1 8.65780367209200534e+01
3670 1 2.33236370395401565e+02
3671 1 8.09572607668087301e+01
3672 1 -2.35515495236923357e+02
3673 1 1.86732134239477290e+01
3674 1 2.00203096569997751e+03
3675 1 1.12934813769468875e+02
3676 1 -1.15299821017093635e+02
3677 1 -2.94780922550547814e+02
3678 1 -3.00149913090301311e+02
3679 1 -1.97788156653710274e+01
3680 1 1.54444914384557023e+02
3681 1 -1.02919327455423399e+03
3682 1 3.97286100814892393e+02
3683 1 -1.15312194954128472e+02
3684 1 5.30556387465019452e+03
3685 1 -3.08064290598436764e+03
3686 1 1.22237516656412268e+02
3687 1 8.25097135685252567e+01
3688 1 9.66745102730142492e+01
3689 1 1.11395367951001703e+02
3690 1 -7.09862246317390372e+02
3691 1 3.61271132536835694e+02
3692 1 1.13423183500424940e+02
3693 1 1.26767458254055370e+02
3694 1 2.35444448468199482e+02
3695 1 6.07249689869301150e+01
3696 1 -1.58439413577742929e+01
3697 1 1.03145662399647676e+03
3698 1 5.20836074526173888e+02
3699 1 4.33555842400463973e+02
3700 1 1.26167311649871363e+03
3701 1 4.56918243901095082e+02
3702 1 -4.09284785532341516e+02
3703 1 3.03927670523607176e+01
3704 1 -2.88934009892117771e+01
3705 1 -1.87404519681024084e+02
3706 1 -4.24574102586844162e+02
3707 1 1.93283257083890106e+02
3708 1 -8.89176588755831716e+01
3709 1 9.25754902665669022e+01
3710 1 -2.41794444136914535e+02
3711 1 -7.66750111469769635e+00
3712 1 5.13606462602243482e+02
3713 1 -1.40578228319666709e+03
3714 1 -8.42396478195909594e+02
3715 1 -4.23116358951040866e+02
3716 1 -1.29066541535767601e+03
3717 1 -2.96249192989448431e+02
3718 1 -6.64954558321712057e+02
3719 1 -6.76936653663488528e+01
3720 1 -1.07013323044344730e+02
3721 1 -1.42472612636521632e+02
3722 1 -3.05174701444176264e+02
3723 1 -9.78537942422373590e+02
3724 1 -8.31894370518013915e+01
3725 1 -1.16694781034834506e+02
3726 1 -2.39091228799726025e+02
3727 1 -4.22599149070172473e+02
3728 1 9.56082997023782184e+01
3729 1 4.77115853785778029e+02
3730 1 -1.47232871030131236e+02
3731 1 2.56955774948376416e+02
3732 1 -7.54564421611904891e+02
3733 1 7.56643420562909228e+02
3734 1 7.76711126230655850e+02
3735 1 6.80628001558272899e+02
3736 1 4.40313803213009521e+02
3737 1 9.68933206354743675e+01
3738 1 -3.10670226558236955e+01
3739 1 5.76037690830266115e+02
3740 1 -8.10848458672463011e+01
3741 1 -1.74860083781718026e+03
3742 1 1.16345773068283194e+02
3743 1 -1.00528359773861212e+02
3744 1 1.33434309830214090e+02
3745 1 -5.67552525268271097e+02
3746 1 1.68168974506910473e+02
3747 1 1.04212064010056281e+02
3748 1 5.37425637841846360e+00
3749 1 -2.06254587775923369e+02
3750 1 -1.06227185705622759e+02
3751 1 -1.11725065089221835e+03
3752 1 -2.72859564083944974e+02
3753 1 -3.90228008294768301e+02
3754 1 -2.42188639775849026e+02
3755 1 -2.85344036496146202e+02
3756 1 3.45263949967034378e+01
3757 1 -1.59248096436126957e+02
3758 1 -1.23523487021480918e+02
3759 1 2.83724067009611701e+02
3760 1 1.35234932572328034e+02
3761 1 -9.70215548220740089e+01
3762 1 9.16542788039610286e+02
3763 1 2.28784979965456159e+02
3764 1 6.60709019372649436e+02
3765 1 7.11022509847659762e+02
3766 1 1.72190278122384626e+02
3767 1 -4.68539191520529670e+01
3768 1 5.80086345726735786e+01
3769 1 1.78851857229826777e+02
3770 1 3.10382103713688018e+00
3771 1 1.44987048528122955e+03
3772 1 9.55497281335888260e+02
3773 1 9.73345465461382844e+01
3774 1 -2.60441163554085733e+02
3775 1 -1.50759819382779398e+02
3776 1 -3.37198745751358217e+02
3777 1 3.62389401640960273e+02
3778 1 2.29966629790789696e+01
3779 1 -7.86887471958350631e+01
3780 1 -2.25747942801702294e+02
3781 1 2.02963388926742027e+02
3782 1 3.41099874955716700e+02
3783 1 3.21518984276581705e+02
3784 1 2.01993024844683475e+02
3785 1 7.77559441746054858e+02
3786 1 -1.19605186406904363e+03
3787 1 5.35301842572740838e+02
3788 1 2.18844360222416839e+02
3789 1 1.95671100412215281e+02
3790 1 4.27035556876629130e+02
3791 1 1.84424606522353770e+02
3792 1 1.67599367486357067e+02
3793 1 4.93612959267838278e+02
3794 1 4.92078909390688409e+02
3795 1 7.56760076902107699e+02
3796 1 2.04686770885501375e+02
3797 1 1.81742242405203967e+02
3798 1 -2.65898169938289493e+03
3799 1 -5.65755036373455589e+00
3800 1 2.98682177968636836e+02
3801 1 1.50750908131055326e+02
3802 1 1.09714404633677347e+02
3803 1 -7.07928793444340499e+02
3804 1 1.69730537392865983e+01
3805 1 1.26428953806438608e+03
3806 1 2.49706032480648958e+02
3807 1 -7.62036729939319457e+01
3808 1 -8.98292887304426927e+02
3809 1 -6.11710165943126640e+02
3810 1 -4.99278824871894500e+01
3811 1 2.26793480684957665e+01
3812 1 4.67318693243355057e+01
3813 1 -3.87721957885326538e+03
3814 1 2.22612261506860762e+02
3815 1 -5.86465488094247462e+02
3816 1 4.68699914470975330e+02
3817 1 2.85586720548606138e+02
3818 1 4.44904567160947238e+02
3819 1 1.71242951982983897e+02
3820 1 7.05064506713781327e+01
3821 1 4.60327903017407493e+02
3822 1 1.34114016373461754e+03
3823 1 5.22728869419175112e+02
3824 1 4.94822899239970468e+02
3825 1 -7.70366567550087552e+02
3826 1 -8.40812208986778273e+02
3827 1 -3.81389771023867809e+02
3828 1 -4.80535387533837479e+02
3829 1 -2.77348488908748777e+02
3830 1 -3.56977767651782642e+02
3831 1 -4.00774758098898019e+02
3832 1 2.74132014358155675e+03
3833 1 1.17454455901331997e+02
3834 1 5.74641229768084045e+01
3835 1 1.30267133366018896e+02
3836 1 -7.56687835297798017e+01
3837 1 1.98231903289145706e+01
3838 1 -2.33873951337762463e+02
3839 1 -3.11454604245394762e+02
3840 1 2.68265997594946157e+03
3841 1 2.71591724147489003e+02
3842 1 1.90449248911900241e+02
3843 1 -1.14882863209154337e+02
3844 1 -1.96852183480943211e+02
3845 1 1.18391930763942952e+02
3846 1 3.92283699736527808e+02
3847 1 -3.57868328778090154e+03
3848 1 -2.30625379292121778e+02
3849 1 -3.65456783162854322e+02
3850 1 -1.07037533720643438e+02
3851 1 -1.78979769616120848e+02
3852 1 2.12693381025808691e+02
3853 1 -1.22324416544388740e+02
3854 1 -1.04361488788750671e+03
3855 1 8.15283518074417771e+02
3856 1 -5.10168002656209501e+03
3857 1 1.99055054240924932e+02
3858 1 3.26280860153074244e+01
3859 1 1.05627034671278750e+02
3860 1 -9.22521408872199231e+02
3861 1 -3.45742532758160996e+03
3862 1 2.31885469091088936e+02
3863 1 -2.23309527872828767e+03
3864 1 7.48563776477037663e+01
3865 1 3.15022628802643325e+01
3866 1 -1.24967126057974234e+01
3867 1 6.52918606657861233e+02
3868 1 -4.99957970018226263e+02
3869 1 2.37855433136610515e+02
3870 1 1.95457401052730603e+02
3871 1 1.41579643613743769e+02
3872 1 1.71996964330648467e+02
3873 1 2.76417167308151761e+02
3874 1 -3.14058223762324133e+03
3875 1 4.65383816461051936e+02
3876 1 1.89514305815632184e+02
3877 1 2.64667800421458821e+02
3878 1 6.27095381064886624e+02
3879 1 -3.46760173222708715e+02
3880 1 8.04922957156823315e+01
3881 1 1.81980494571729494e+01
3882 1 -2.59161666749761878e+02
3883 1 -4.41240487510407107e+01
3884 1 -3.46550363591612779e+02
3885 1 6.48279930664072594e+01
3886 1 -1.45909424589445393e+03
3887 1 6.98552386485415013e+01
3888 1 2.17410046410260293e+02
3889 1 2.13906177091756859e+01
3890 1 -2.71661180736216146e-01
3891 1 5.68723309740624074e+01
3892 1 -8.76526130889849355e+02
3893 1 1.53105802782438786e+02
3894 1 5.50255603149954936e+02
3895 1 1.10290950223250832e+02
3896 1 -6.67518826637682082e+02
3897 1 -3.31625246797859319e+01
3898 1 4.74255785494334418e+02
3899 1 7.24556071414886986e+01
3900 1 3.46835645398968637e+01
3901 1 6.61446385590898700e+01
3902 1 7.52403829140746296e+01
3903 1 -2.95102402199570548e+01
3904 1 -1.11786352354931637e+02
3905 1 6.03633651591532754e+01
3906 1 1.23330193506445394e+01
3907 1 2.11015589510719167e+02
3908 1 6.33588559479120335e+01
3909 1 3.98009785746612238e+02
3910 1 8.67967130015484486e+02
3911 1 -3.54976337742017307e+01
3912 1 -2.75303372937107405e+01
3913 1 -8.32410173063309003e+02
3914 1 8.70457849100598196e+02
3915 1 -1.65578969234330600e+02
3916 1 -1.32128216460664021e+03
3917 1 1.61245094869279313e+02
3918 1 4.04188298080394418e+02
3919 1 4.30019597753752919e+02
3920 1 1.73032176184726808e+02
3921 1 -1.90966621737327046e+02
3922 1 7.57088743605544778e+02
3923 1 -2.95577020065390457e+02
3924 1 5.42188174619195024e+02
3925 1 3.00316952524229123e+02
3926 1 2.24249994119055401e+02
3927 1 2.20758849995491119e+02
3928 1 1.62763374511648408e+02
3929 1 2.29495412298979716e+02
3930 1 1.96729514118699541e+02
3931 1 5.03220116080804928e+02
3932 1 1.13812760620927662e+01
3933 1 -8.20034616281734259e+01
3934 1 3.20805772503523599e+02
3935 1 -6.55302593300854710e+01
3936 1 -1.37349661907168161e+03
3937 1 -9.91505317755084775e+02
3938 1 3.42812203533372553e+02
3939 1 1.24443320348652634e+02
3940 1 -3.02960644590957145e+02
3941 1 -8.64235436507907622e+01
3942 1 -1.09962016654641147e+02
3943 1 1.03293541295020475e+02
3944 1 3.61162517008143709e+02
3945 1 2.19178341375843956e+02
3946 1 -3.23174379394661219e+03
3947 1 5.65286921487269524e+02
3948 1 -2.46715422514648026e+03
3949 1 -1.51688065452324349e+03
3950 1 2.31715422679972590e+02
3951 1 2.72800942270525013e+02
3952 1 -1.92095476518034161e+02
3953 1 -2.07839002708526266e+02
3954 1 -1.73214623419484070e+02
3955 1 -4.21242724231707300e+01
3956 1 2.99100621774519254e+02
3957 1 -1.35570527498779313e+02
3958 1 3.59013220642399347e+02
3959 1 3.77714705421859833e+02
3960 1 2.33813938512403070e+02
3961 1 9.10556116419629348e+02
3962 1 8.86218697881518892e+02
3963 1 2.12089014196963490e+03
3964 1 7.37585434846745329e+02
3965 1 1.06746702257486686e+03
3966 1 -1.12458102527700078e+02
3967 1 -3.13425085994824201e+02
3968 1 -3.50661803680321711e+01
3969 1 -4.51104927788647728e+02
3970 1 4.13626003983592966e+02
3971 1 4.40433652601381993e+02
3972 1 -8.12967764192056279e+02
3973 1 -2.06902532991549322e+02
3974 1 7.72904775695129871e+01
3975 1 3.40874847827218659e+01
3976 1 -2.80397174104136013e+01
3977 1 4.23394560451540826e+02
3978 1 -9.43143579115094752e+01
3979 1 9.83609768795232213e+01
3980 1 -2.60452313474796824e+02
3981 1 -3.06380446755276239e+02
3982 1 4.88125156714070840e+02
3983 1 5.80710441939926113e+02
3984 1 8.76153217238362004e+02
3985 1 2.05100592362872760e+02
3986 1 -1.08350269199478475e+02
3987 1 -3.53539770803070681e+01
3988 1 2.06593686073488328e+02
3989 1 -1.74899997553417478e+02
3990 1 -2.13751290324692661e+02
3991 1 1.90311378436142604e+01
3992 1 2.81174097356178606e+02
3993 1 -1.14293360125924579e+02
3994 1 2.86649572646762351e+02
3995 1 9.73323386758961249e+01
3996 1 -2.04027920078446584e+02
3997 1 -1.22599786439721314e+02
3998 1 -2.80172567071783121e+01
3999 1 -8.33313172363559858e+01
4000 1 -4.03707850721391210e+01
4001 1 -3.44311550502146190e+02
4002 1 -5.80825873102594628e+01
4003 1 1.16948460399586466e+02
4004 1 -1.17264440162832756e+02
4005 1 2.97521351087534299e+02
4006 1 5.68783137030100576e+01
4007 1 5.93448280047094556e+01
4008 1 5.30394432991772149e+01
4009 1 -7.08281773179389688e+02
4010 1 5.43260171943884416e+01
4011 1 1.84094747747020335e+01
4012 1 -4.42429335269673118e+02
4013 1 3.84039599338885000e+03
4014 1 3.05080392324745446e+02
4015 1 7.10744103999069949e+01
4016 1 1.07407707507992086e+02
4017 1 -1.44241273937640045e+02
4018 1 -1.00993855530236871e+01
4019 1 3.35985622661870639e+03
4020 1 3.45729447209684906e+02
4021 1 1.90867328955107098e+02
4022 1 1.55229108829099175e+02
4023 1 1.44414257894075376e+02
4024 1 -1.52578614616685488e+01
4025 1 3.45598476712191541e+02
4026 1 3.08021046557500711e+01
4027 1 -1.06409054325009322e+02
4028 1 3.52320574951007700e+02
4029 1 -1.13463499600794478e+02
4030 1 7.19959646303319005e+02
4031 1 -2.76893515620342576e+01
4032 1 5.19691248600423705e+01
4033 1 2.42687588490808906e+02
4034 1 -7.95409514702614331e+01
4035 1 7.99567068189673904e+01
4036 1 1.25469999682415889e+02
4037 1 2.24112327880036673e+02
4038 1 -7.55523388112308680e+01
4039 1 -8.56289355013035589e+01
4040 1 -1.24975433851942498e+02
4041 1 -7.56835902981685877e+02
4042 1 2.47470966467242420e+02
4043 1 -3.46991746769548172e+02
4044 1 2.70410751263642481e+01
4045 1 -4.98038299011316283e+01
4046 1 9.51815032053419401e+01
4047 1 -1.20325014161343825e+03
4048 1 2.88345937389343987e+02
4049 1 -3.84619695361806407e+02
4050 1 2.22854838301725380e+02
4051 1 1.33649186908500013e+02
4052 1 8.38970995714868764e+01
4053 1 1.14454434306738733e+02
4054 1 4.71373309622702550e+01
4055 1 4.82752623065673845e+01
4056 1 -2.01338822938722728e+02
4057 1 6.52992049372076053e+02
4058 1 3.63793493854054304e+02
4059 1 1.22400212044159480e+03
4060 1 3.02690283880366522e+01
4061 1 -8.34007057918308874e+01
4062 1 8.34325340318507642e+01
4063 1 3.03532162866141789e+02
4064 1 3.03217111404808179e+02
4065 1 -1.15127921174809035e+03
4066 1 1.14403831540267745e+02
4067 1 1.03203000543164393e+02
4068 1 7.53715214932978483e+01
4069 1 3.20872183027470271e+02
4070 1 1.41770663636125846e+02
4071 1 -1.14880751515568363e+02
4072 1 1.49837052894888330e+02
4073 1 3.97497562673591403e+02
4074 1 -1.35479708311299510e+03
4075 1 1.69576108650352220e+00
4076 1 4.29045488754939129e+02
4077 1 2.15897434086851445e+03
4078 1 -1.27886723795365555e+02
4079 1 1.62198682885258961e+02
4080 1 1.83648123096731659e+01
4081 1 -1.14524728225771682e+02
4082 1 1.61528317656740086e+02
4083 1 2.16140586541192107e+02
4084 1 4.88102592955493321e+02
4085 1 -9.87018038837045708e+01
4086 1 -8.17782582935464859e+01
4087 1 -1.31556885712275812e+03
4088 1 1.23426997450531439e+03
4089 1 -4.44060552395829546e+01
4090 1 -1.92416457504161781e+03
4091 1 1.02459081188830783e+03
4092 1 3.81972825499598457e+02
4093 1 3.40382637109888435e+02
4094 1 2.63876138581099042e+02
4095 1 4.33196000625400472e+02
4096 1 3.60691609019437635e+02
4097 1 2.55993085437521358e+02
4098 1 1.10645055646439323e+03
4099 1 2.94818110984164889e+02
4100 1 -5.88327277426016337e+01
4101 1 -9.11672550985125838e+01
4102 1 -1.03194558109007130e+03
4103 1 -1.73664495383430165e+02
4104 1 1.36387800237848268e+02
4105 1 -9.83734705676234853e+01
4106 1 1.97526952382150718e+01
4107 1 2.12965093473457046e+02
4108 1 -7.06372973172284787e+02
4109 1 -1.28034896343418950e+03
4110 1 -2.07710594678972757e+03
4111 1 -2.31891698000174074e+03
4112 1 6.23197360166308272e+02
4113 1 -3.08318769604627789e+02
4114 1 -6.02099101323326877e+01
4115 1 -9.49939161912106300e+00
4116 1 3.99368298966586579e+01
4117 1 8.39515548055941991e+01
4118 1 8.66036429158307612e+01
4119 1 4.65592945781165213e+01
4120 1 -1.34325731886719268e+02
4121 1 -6.52199949826774741e+02
4122 1 1.01761756867479320e+02
4123 1 7.95786985100368867e+01
4124 1 3.82444005114198490e+02
4125 1 -1.14316657452773393e+03
4126 1 3.10565400231839249e+02
4127 1 -1.52662972407578508e+02
4128 1 2.25099608866930282e+02
4129 1 1.43703035513372038e+03
4130 1 -1.20214186371773920e+02
4131 1 9.17739710874573547e+01
4132 1 9.04912603692757784e+01
4133 1 4.01009038346911041e+02
4134 1 8.93376296596080465e+02
4135 1 -1.41822026865839405e+02
4136 1 4.52563320241447897e+01
4137 1 2.08729357602554479e+01
4138 1 -9.23938964626282342e+01
4139 1 4.13390721615299640e+02
4140 1 5.33597164308292804e+01
4141 1 3.10190164454671844e+02
4142 1 -1.61458262165848026e+02
4143 1 -3.87958364657055824e+02
4144 1 -1.35252249610556078e+02
4145 1 4.87699998669669810e+02
4146 1 3.05574980473994287e+02
4147 1 2.15590156288885368e+02
4148 1 -1.39488132034511466e+02
4149 1 -6.47008055836311939e+01
4150 1 -5.18393897029116943e+02
4151 1 -8.73800259049464927e+01
4152 1 -1.23425562724212952e+02
4153 1 1.84458488889182632e+02
4154 1 1.62102525987383643e+02
4155 1 2.32342925258863147e+02
4156 1 -6.44059424203018443e+03
4157 1 7.52967126238135478e+01
4158 1 8.81019484389406898e+02
4159 1 2.00134862070072245e+02
4160 1 2.33153742191662531e+02
4161 1 4.09113006575831903e+01
4162 1 -3.38529568461857593e+02
4163 1 1.89176405960991900e+02
4164 1 2.63421373094603439e+02
4165 1 1.12739043620164935e+02
4166 1 6.99655339794434354e+01
4167 1 7.51485449740485212e+00
4168 1 6.34670094490522700e+01
4169 1 -8.71836733212680315e+01
4170 1 -1.09321433509146814e+02
4171 1 4.03590188018603101e+02
4172 1 6.75835921664023687e+01
4173 1 1.09363067800652345e+02
4174 1 1.08256844160159588e+02
4175 1 -9.90257098294240201e+00
