%%MatrixMarket matrix coordinate  real general
100 1 100
1 1 1.87618419773154438e-01
2 1 1.87639778138380425e-01
3 1 1.89353300100068261e-01
4 1 1.89582190300282782e-01
5 1 1.97104320394788118e-01
6 1 2.03560402788395989e-01
7 1 2.03677220742568471e-01
8 1 2.02572662458558844e-01
9 1 2.02500253401592584e-01
10 1 1.99072064128290344e-01
11 1 2.02855826680657464e-01
12 1 2.06727882935242413e-01
13 1 2.11721898530262381e-01
14 1 2.24293753415963248e-01
15 1 2.42362802067838307e-01
16 1 2.52374821385905723e-01
17 1 2.54551712596575663e-01
18 1 2.51447809280450130e-01
19 1 2.48802462430895543e-01
20 1 2.42643045177231731e-01
21 1 2.42789505290429669e-01
22 1 2.50158349895251042e-01
23 1 2.49011543869554181e-01
24 1 2.49541994369763015e-01
25 1 2.54452309607617444e-01
26 1 2.54858993459304684e-01
27 1 2.50237273216636302e-01
28 1 2.48394315256452752e-01
29 1 2.48523766146790226e-01
30 1 2.57862870939529254e-01
31 1 2.64721877404288097e-01
32 1 2.69177540136512239e-01
33 1 2.74030050822670901e-01
34 1 2.87905064118858522e-01
35 1 2.96077582578950282e-01
36 1 3.01411805477138028e-01
37 1 3.10588440162017865e-01
38 1 3.21480557702692127e-01
39 1 3.37873570078781216e-01
40 1 3.54726064013427766e-01
41 1 3.66570264342582219e-01
42 1 3.81015676814217108e-01
43 1 4.14257201838545364e-01
44 1 4.40752288285477634e-01
45 1 4.67965730739698993e-01
46 1 4.94139857472260080e-01
47 1 5.08365509723080145e-01
48 1 5.19370315018754414e-01
49 1 5.36974045476047324e-01
50 1 5.49113141855103182e-01
51 1 5.61258030813892250e-01
52 1 5.72308752111351016e-01
53 1 5.82353419737234312e-01
54 1 6.00389097044154219e-01
55 1 6.29917233682822930e-01
56 1 6.58195111726237680e-01
57 1 6.79376192087695396e-01
58 1 6.98249680370435888e-01
59 1 6.99696454659159084e-01
60 1 7.00507397244791830e-01
61 1 7.18649480750252589e-01
62 1 7.44650109042645725e-01
63 1 7.86836312385698400e-01
64 1 8.12322251721019684e-01
65 1 8.30908165946291244e-01
66 1 8.65900359487083771e-01
67 1 8.73740642901465581e-01
68 1 8.96215289846094776e-01
69 1 9.22023955630697278e-01
70 1 9.42724523119617963e-01
71 1 9.59873852573844388e-01
72 1 9.76201796226695562e-01
73 1 1.00835082183580305e+00
74 1 1.03303396701464356e+00
75 1 1.05315084759758992e+00
76 1 1.06820403266840591e+00
77 1 1.08041189390543524e+00
78 1 1.09046320077625669e+00
79 1 1.09890956188288103e+00
80 1 1.10581856508120424e+00
81 1 1.11143837763514886e+00
82 1 1.11599992749168142e+00
83 1 1.11969496197164675e+00
84 1 1.12268214626227469e+00
85 1 1.12509227324433425e+00
86 1 1.12703359349169907e+00
87 1 1.12859547596738974e+00
88 1 1.12985039518834851e+00
89 1 1.13085810249345919e+00
90 1 1.13166790483886470e+00
91 1 1.13231864366716817e+00
92 1 1.13284248804747079e+00
93 1 1.13326486357954148e+00
94 1 1.13360602148996326e+00
95 1 1.13388200780620085e+00
96 1 1.13410549206048894e+00
97 1 1.13428849122134712e+00
98 1 1.13443646151726507e+00
99 1 1.13455850922073531e+00
100 1 1.13465936173161275e+00
