%%MatrixMarket matrix coordinate  real general
100 1 100
1 1 1.00000000000000002e-08
2 1 1.20450354025878108e-08
3 1 1.45082877849593723e-08
4 1 1.74752840000768290e-08
5 1 2.10490414451201766e-08
6 1 2.53536449397010638e-08
7 1 3.05385550883341214e-08
8 1 3.67837977182862671e-08
9 1 4.43062145758387744e-08
10 1 5.33669923120630196e-08
11 1 6.42807311728430636e-08
12 1 7.74263682681126154e-08
13 1 9.32603346883217997e-08
14 1 1.12332403297802658e-07
15 1 1.35304777457980489e-07
16 1 1.62975083462064359e-07
17 1 1.96304065004026854e-07
18 1 2.36448941264540248e-07
19 1 2.84803586843579906e-07
20 1 3.43046928631491191e-07
21 1 4.13201240011533431e-07
22 1 4.97702356433210329e-07
23 1 5.99484250318940916e-07
24 1 7.22080901838545681e-07
25 1 8.69749002617781676e-07
26 1 1.04761575278966415e-06
27 1 1.26185688306601851e-06
28 1 1.51991108295293305e-06
29 1 1.83073828029536595e-06
30 1 2.20513073990304097e-06
31 1 2.65608778294668405e-06
32 1 3.19926713779737789e-06
33 1 3.85352859371052712e-06
34 1 4.64158883361277264e-06
35 1 5.59081018251222263e-06
36 1 6.73415065775081497e-06
37 1 8.11130830789685576e-06
38 1 9.77009957299224615e-06
39 1 1.17681195243499662e-05
40 1 1.41747416292680479e-05
41 1 1.70735264747068856e-05
42 1 2.05651230834865152e-05
43 1 2.47707635599170882e-05
44 1 2.98364724028333434e-05
45 1 3.59381366380462556e-05
46 1 4.32876128108305303e-05
47 1 5.21400828799968436e-05
48 1 6.28029144183424640e-05
49 1 7.56463327554627516e-05
50 1 9.11162756115488690e-05
51 1 1.09749876549305561e-04
52 1 1.32194114846602878e-04
53 1 1.59228279334109067e-04
54 1 1.91791026167248673e-04
55 1 2.31012970008315807e-04
56 1 2.78255940220712306e-04
57 1 3.35160265093884110e-04
58 1 4.03701725859655384e-04
59 1 4.86260158006534854e-04
60 1 5.85702081805666093e-04
61 1 7.05480231071863874e-04
62 1 8.49753435908643783e-04
63 1 1.02353102189902583e-03
64 1 1.23284673944206585e-03
65 1 1.48496826225446351e-03
66 1 1.78864952905743329e-03
67 1 2.15443469003188210e-03
68 1 2.59502421139973455e-03
69 1 3.12571584968823540e-03
70 1 3.76493580679246754e-03
71 1 4.53487850812858174e-03
72 1 5.46227721768433733e-03
73 1 6.57933224657567591e-03
74 1 7.92482898353916859e-03
75 1 9.54548456661833723e-03
76 1 1.14975699539773563e-02
77 1 1.38488637139387236e-02
78 1 1.66810053720005819e-02
79 1 2.00923300256504699e-02
80 1 2.42012826479438108e-02
81 1 2.91505306282517571e-02
82 1 3.51119173421513067e-02
83 1 4.22924287438949664e-02
84 1 5.09413801481637743e-02
85 1 6.13590727341317282e-02
86 1 7.39072203352577478e-02
87 1 8.90215085445038301e-02
88 1 1.07226722201032312e-01
89 1 1.29154966501488361e-01
90 1 1.55567614393047143e-01
91 1 1.87381742286038405e-01
92 1 2.25701971963391979e-01
93 1 2.71858824273293997e-01
94 1 3.27454916287772846e-01
95 1 3.94420605943765490e-01
96 1 4.75081016210279650e-01
97 1 5.72236765935021707e-01
98 1 6.89261210434969684e-01
99 1 8.30217568131974559e-01
100 1 1.00000000000000000e+00
