%%MatrixMarket matrix coordinate  real general
1040 1 1040
1 1 1.64717685189568783e+01
2 1 1.65732646714853402e+01
3 1 1.69552940090408342e+01
4 1 1.78149579162859695e+01
5 1 1.94471249523922047e+01
6 1 2.02065250492915958e+01
7 1 2.30464600085201496e+01
8 1 4.75531097928395567e+01
9 1 2.44607706891948098e+01
10 1 2.35958362790209222e+01
11 1 4.79777887060960140e+01
12 1 4.60162077065413939e+01
13 1 4.48255374201300683e+01
14 1 2.25473536549433007e+01
15 1 1.59239664746312464e+01
16 1 4.30489847877414462e+01
17 1 3.97530389301135756e+01
18 1 3.93111386250666826e+01
19 1 3.49905511188372245e+01
20 1 3.06898621431369527e+01
21 1 2.15653591090424257e+01
22 1 1.60868618057372359e+01
23 1 1.37802327850193755e+01
24 1 2.89210784323173122e+01
25 1 2.82917356299987510e+01
26 1 -6.33888671621488431e+00
27 1 1.85551360127488465e+01
28 1 1.94003289827711427e+01
29 1 2.15261352045648238e+01
30 1 2.02709858951769846e+01
31 1 -6.03061533789339421e+00
32 1 2.09851426198754432e+01
33 1 1.99613221375823251e+01
34 1 1.55693142081164986e+01
35 1 1.47653556870330966e+01
36 1 1.79080718947989048e+01
37 1 1.23685640795441714e+01
38 1 2.26290265308579208e+01
39 1 1.89955254509599953e+01
40 1 2.94469362435046627e+01
41 1 3.51812274619730587e+01
42 1 -4.47024033084631434e+00
43 1 1.95423839525935215e+01
44 1 1.89032143642741772e+01
45 1 1.96421083219381529e+01
46 1 -4.04218663521525290e+00
47 1 1.93300537157122143e+01
48 1 7.26124973541243168e+00
49 1 4.53721493193756586e+00
50 1 3.17398492723844612e+01
51 1 1.28936370423065600e+01
52 1 4.51754910667935192e+01
53 1 2.23450555900091281e+01
54 1 2.75627336796954552e+01
55 1 3.53899530486652480e+01
56 1 3.45908989225348336e+01
57 1 -1.33107922183154259e+00
58 1 -2.66237947230431660e+00
59 1 2.04629379087879641e+01
60 1 1.82483275482257561e+01
61 1 1.90336467294390737e+01
62 1 8.50938017719080397e-01
63 1 1.20509789029388621e+01
64 1 1.20659913203182576e+01
65 1 1.78283677899682083e+01
66 1 6.26735788412270054e+01
67 1 7.66458680005984405e+00
68 1 2.94609176723144861e+00
69 1 2.74074400708123562e+01
70 1 5.57043160668229618e+01
71 1 2.18587065616182734e+01
72 1 2.59246579592349775e+01
73 1 2.82179376951530649e+01
74 1 3.07070918373562272e+01
75 1 4.80705928693417572e+00
76 1 1.79750769606817222e+01
77 1 1.93098959790612277e+01
78 1 1.27963444544711837e+01
79 1 1.25959778168123560e+01
80 1 1.70687807169764945e+01
81 1 6.74130945503874415e+01
82 1 7.11078892512611560e+01
83 1 1.67192023909918532e+01
84 1 1.28442498356710573e+01
85 1 1.68219074723246074e+01
86 1 6.74128627058409222e+01
87 1 2.66083391913088079e+01
88 1 1.21915427556829403e+01
89 1 2.65069640094019618e+01
90 1 4.60896631929476683e+01
91 1 6.03479849230872034e+01
92 1 2.58872884906728089e+01
93 1 2.22880340839870250e+01
94 1 2.64784140090122548e+01
95 1 2.39547510209552179e+01
96 1 1.01760528921747397e+01
97 1 1.73760108260077679e+01
98 1 1.94078218634325133e+01
99 1 1.51182363793192636e+01
100 1 1.38124519127232457e+01
101 1 6.24565134559998114e+01
102 1 6.54285626183476552e+01
103 1 1.67408087903739791e+01
104 1 1.30010973704269865e+01
105 1 2.77601681473153548e+01
106 1 1.65914224406626651e+01
107 1 3.84473965603414669e+01
108 1 1.60691963538797467e+01
109 1 2.75051059599030978e+01
110 1 2.43588467418054471e+01
111 1 4.88356947735049616e+01
112 1 5.29908101800454645e+01
113 1 2.26079238021712356e+01
114 1 2.75646022118688414e+01
115 1 2.93714982151954800e+01
116 1 3.07924422546272183e+01
117 1 2.94518078095466542e+01
118 1 1.71832460417786770e+01
119 1 1.79049770540058297e+01
120 1 1.95537822159222365e+01
121 1 1.70892700017841861e+01
122 1 5.40492519462326726e+01
123 1 5.22889425232081209e+01
124 1 1.67608720165255818e+01
125 1 1.80913491311741836e+01
126 1 3.34443981282502634e+01
127 1 3.82982143538242497e+01
128 1 4.01443515892263036e+01
129 1 1.87666323211056110e+01
130 1 3.06752013991644716e+01
131 1 2.24890174541406260e+01
132 1 3.11589382643729884e+01
133 1 2.73984541371950421e+01
134 1 4.00239879981433333e+01
135 1 4.25182106182134802e+01
136 1 2.57477385812490454e+01
137 1 2.15064309983224646e+01
138 1 3.17409801751415941e+01
139 1 3.44090879891036678e+01
140 1 3.50249183292058959e+01
141 1 3.50116792811409567e+01
142 1 1.82290817196282369e+01
143 1 2.02348195003812670e+01
144 1 2.12346366072124937e+01
145 1 3.82114883515280255e+01
146 1 3.25290989311124932e+01
147 1 2.95484638973556741e+01
148 1 2.47538769096985298e+01
149 1 2.54687010796168742e+01
150 1 1.85504561562702293e+01
151 1 2.93421947604215028e+01
152 1 2.35748907890740327e+01
153 1 2.84128134995557460e+01
154 1 2.89486391248139050e+01
155 1 2.79441204035783670e+01
156 1 3.02304198019445955e+01
157 1 2.66551209403736422e+01
158 1 2.45031779203094935e+01
159 1 2.83074151267816418e+01
160 1 2.80447814577718937e+01
161 1 2.72019672155410319e+01
162 1 2.81208217243635090e+01
163 1 2.52753017244819986e+01
164 1 3.15524702060301792e+01
165 1 3.02810809272541483e+01
166 1 2.57601319769985260e+01
167 1 2.38059338586131801e+01
168 1 3.39490869792720886e+01
169 1 3.56365096763708422e+01
170 1 3.55384291407986552e+01
171 1 3.49665299713450111e+01
172 1 2.04478122964207181e+01
173 1 2.74059266610319483e+01
174 1 2.29664659371651965e+01
175 1 2.22053950158224289e+01
176 1 2.41960645025651147e+01
177 1 2.06850409317333295e+01
178 1 1.84754086032416716e+01
179 1 2.88327461200883342e+01
180 1 2.53217547854266343e+01
181 1 2.75398267421985281e+01
182 1 2.66098919110099104e+01
183 1 3.20641918291663188e+01
184 1 3.32449094542707826e+01
185 1 2.97979541713996348e+01
186 1 1.53909755123244061e+01
187 1 2.81244134577503289e+01
188 1 3.26364090848357407e+01
189 1 2.62577125512055431e+01
190 1 2.59901583657094903e+01
191 1 2.32714786390522406e+01
192 1 2.48138672980986499e+01
193 1 2.31585332638144905e+01
194 1 1.57860145427049208e+01
195 1 1.76817081731225940e+01
196 1 1.60972220130044690e+01
197 1 2.24724960863602092e+01
198 1 3.20206657909481223e+01
199 1 2.83912611980196239e+01
200 1 2.63107140459411397e+01
201 1 2.31672644984771132e+01
202 1 3.38687031460745516e+01
203 1 1.88052091194297901e+01
204 1 1.85886553779592845e+01
205 1 1.96332522807423508e+01
206 1 2.41557279936702223e+01
207 1 1.85714910245517828e+01
208 1 1.52548482955237823e+01
209 1 2.80532328037214533e+01
210 1 2.54281601595814095e+01
211 1 2.60450166116230761e+01
212 1 2.53670927225048679e+01
213 1 3.03296385948434093e+01
214 1 1.32167722145261592e+01
215 1 2.79523891462411420e+01
216 1 2.98289704904633446e+01
217 1 3.27779560011521980e+01
218 1 2.67542831770839094e+01
219 1 1.58080125685015656e+01
220 1 2.43199641118751764e+01
221 1 2.05231680269507208e+01
222 1 1.99451609226458402e+01
223 1 1.83610452076600019e+01
224 1 1.24393102577951780e+01
225 1 1.35277135589904223e+01
226 1 1.18173566561153329e+01
227 1 1.48556293678987767e+01
228 1 2.56265261901574313e+01
229 1 2.84331008547296662e+01
230 1 2.40789011730456970e+01
231 1 2.00828980854028920e+01
232 1 2.08251465339737436e+01
233 1 1.76800367658200202e+01
234 1 1.35012876979718417e+01
235 1 2.66110423661042645e+01
236 1 2.40379230318100774e+01
237 1 2.50021136318522501e+01
238 1 2.48925810101265874e+01
239 1 2.80776009231519126e+01
240 1 1.25168143014067006e+01
241 1 2.49652664955263788e+01
242 1 2.71942055069403814e+01
243 1 2.76541308483114001e+01
244 1 2.65998328372538424e+01
245 1 1.76897980584519381e+01
246 1 1.98355450571771925e+01
247 1 2.18165985571349132e+01
248 1 1.22661255860080818e+01
249 1 1.86558887960216779e+01
250 1 2.07399054348241272e+01
251 1 1.58700194859050523e+01
252 1 1.60621547268890907e+01
253 1 1.69321542245687731e+01
254 1 1.41469656642525514e+01
255 1 1.28661416562571542e+01
256 1 2.43684199263713168e+01
257 1 2.68135460376850254e+01
258 1 2.48370107726290463e+01
259 1 2.48795248502953825e+01
260 1 2.52419115678921848e+01
261 1 2.27325487546371114e+01
262 1 1.86312383321901116e+01
263 1 1.49116212341906351e+01
264 1 2.62259094369756198e+01
265 1 2.45069707154417173e+01
266 1 2.49219710852831291e+01
267 1 2.72432251291157996e+01
268 1 1.38599332147139087e+01
269 1 2.91691758715250735e+01
270 1 2.89108055287560930e+01
271 1 2.74938491845631923e+01
272 1 2.61806270899145517e+01
273 1 1.98921239469840962e+01
274 1 1.37267276970692969e+01
275 1 2.13945846720193593e+01
276 1 2.81889873824823667e+01
277 1 1.48722704751150427e+01
278 1 2.75727708714780846e+01
279 1 3.95447274119628389e+01
280 1 1.66624606758894309e+01
281 1 1.71527932046880451e+01
282 1 1.56113348059294008e+01
283 1 1.77875559358551847e+01
284 1 1.59725008025455715e+01
285 1 4.07742542936499817e+01
286 1 3.06822183755138944e+01
287 1 3.02535225292761574e+01
288 1 2.93511953057708261e+01
289 1 2.25815688444073928e+01
290 1 1.96465815724314332e+01
291 1 1.87647824885863166e+01
292 1 2.63780409498221182e+01
293 1 2.71546414631620294e+01
294 1 2.82676926073981605e+01
295 1 1.58759971827166613e+01
296 1 2.34657862621650182e+01
297 1 2.65822697422323024e+01
298 1 3.13937126702887603e+01
299 1 1.77991689821662611e+01
300 1 2.69421319295987125e+01
301 1 3.17217904369495969e+01
302 1 1.68765624018215554e+01
303 1 3.49652923089587020e+01
304 1 3.27572492150265262e+01
305 1 3.75036801867394658e+01
306 1 3.41205513614875713e+01
307 1 1.84755778764476801e+01
308 1 1.86737855311835084e+01
309 1 1.62220044862771253e+01
310 1 1.65929298823696243e+01
311 1 1.88613541615812004e+01
312 1 1.69194986160900349e+01
313 1 1.77354311793455963e+01
314 1 1.88982482731088020e+01
315 1 1.86423008104523262e+01
316 1 3.37267810421770093e+01
317 1 3.55717412176348233e+01
318 1 2.82336518363141380e+01
319 1 2.60292464922920175e+01
320 1 2.82645551666950894e+01
321 1 2.99071201693806223e+01
322 1 1.92040152953640302e+01
323 1 1.77194832848326058e+01
324 1 2.76871080551869682e+01
325 1 2.97102463008326652e+01
326 1 3.62873015445439151e+01
327 1 1.66261851968864924e+01
328 1 1.69771755045658779e+01
329 1 2.88730764826838033e+01
330 1 1.72382005569753787e+01
331 1 3.54836528547223580e+01
332 1 3.37024766837671734e+01
333 1 2.87314413810114075e+01
334 1 2.28850297777447480e+01
335 1 3.05724391104639182e+01
336 1 2.94724331726950375e+01
337 1 3.35299021647369955e+01
338 1 2.66693460646709184e+01
339 1 1.94911487452572807e+01
340 1 1.87227956438635097e+01
341 1 1.95568491090770209e+01
342 1 1.59983416422160012e+01
343 1 1.63261921056292429e+01
344 1 1.72889644358833436e+01
345 1 1.84961122661656887e+01
346 1 1.76421844507057379e+01
347 1 1.68555912846494458e+01
348 1 1.60340462405648907e+01
349 1 1.45189953236774976e+01
350 1 1.55594514165050253e+01
351 1 1.74466625160986020e+01
352 1 1.78655143412282449e+01
353 1 1.91948724007796798e+01
354 1 1.70699832072925481e+01
355 1 3.07956510412623423e+01
356 1 3.28466680780090030e+01
357 1 3.04072968174388940e+01
358 1 1.42310971776996151e+01
359 1 2.54268828636328017e+01
360 1 1.51903049585769114e+01
361 1 2.35480055324540949e+01
362 1 3.07558528949376537e+01
363 1 3.30399605184029639e+01
364 1 1.29127682862904880e+01
365 1 2.21454568683761224e+01
366 1 1.67902322705035729e+01
367 1 3.77758609334714563e+01
368 1 4.04933368830422467e+01
369 1 3.78274150875218851e+01
370 1 3.48011871498115610e+01
371 1 2.05657431897848078e+01
372 1 2.77906287477974665e+01
373 1 3.08942152985016705e+01
374 1 2.67059329835729393e+01
375 1 2.64789875501353684e+01
376 1 1.94534562806180027e+01
377 1 1.90074521688692712e+01
378 1 1.80057436526312635e+01
379 1 1.47753149925013911e+01
380 1 1.61900943735223066e+01
381 1 1.74443560019716415e+01
382 1 1.52518680207108961e+01
383 1 1.21266711322289993e+01
384 1 1.08618206212289365e+01
385 1 1.07406242802022369e+01
386 1 1.11796345144612008e+01
387 1 1.14580121683928216e+01
388 1 1.84216371311944940e+01
389 1 1.66137132333818123e+01
390 1 1.60521774518531970e+01
391 1 1.79114877460089801e+01
392 1 1.48251883288604969e+01
393 1 1.34394803933890294e+01
394 1 3.28441146735779483e+01
395 1 3.22899431402970762e+01
396 1 3.46569188890585949e+01
397 1 2.56504001276170328e+01
398 1 3.28914424047256873e+01
399 1 2.76403092113214193e+01
400 1 1.99942234724148769e+01
401 1 1.64182941470214061e+01
402 1 3.97789110814279567e+01
403 1 4.25932637642358927e+01
404 1 3.44516247967590417e+01
405 1 3.05528093751608196e+01
406 1 3.07735199054537247e+01
407 1 2.92639827372197416e+01
408 1 3.16408574625768537e+01
409 1 1.71787392140153443e+01
410 1 1.38371650829673900e+01
411 1 1.41212715197265375e+01
412 1 1.08320949315338755e+01
413 1 1.51789217165022450e+01
414 1 1.65039769093563429e+01
415 1 -3.02994843458880547e+00
416 1 1.40690351461767040e+01
417 1 1.37989691050692063e+01
418 1 1.39475098978278496e+01
419 1 1.44855837498511413e+01
420 1 1.51086300963808107e+01
421 1 3.25701684564226071e+01
422 1 3.08969753750834357e+01
423 1 3.61554955379842227e+01
424 1 2.40279945077272323e+01
425 1 3.40374238193574641e+01
426 1 3.02997865906295409e+01
427 1 3.12741940351367198e+01
428 1 3.69281268972146677e+01
429 1 3.51118461968803999e+01
430 1 3.11463542764675871e+01
431 1 3.21309736036673073e+01
432 1 3.23473544045092964e+01
433 1 1.19940965844589194e+01
434 1 2.46112205452025208e+01
435 1 1.28697751451951952e+01
436 1 7.99249900013947645e+00
437 1 -2.83578000620752535e+00
438 1 -2.86645334887795666e+00
439 1 1.20827361894232723e+01
440 1 4.89123618369557622e+00
441 1 5.87233249456438688e+00
442 1 7.73018017033006100e+00
443 1 6.78789124676236089e+00
444 1 5.95432570349026946e+00
445 1 9.87887587832002723e+00
446 1 1.07433685622490351e+01
447 1 8.63856511499730573e+00
448 1 3.04718891958373774e+01
449 1 4.20217628289900347e+01
450 1 3.07568536628459555e+01
451 1 5.61791415160965428e+01
452 1 8.02546462794118654e+00
453 1 9.49724923881674243e+00
454 1 9.24433768537025458e+00
455 1 2.99850391038300863e+01
456 1 2.92558988222796685e+01
457 1 1.22749119832885363e+01
458 1 1.75623384050220608e+01
459 1 9.86666230398806832e+00
460 1 2.75515234942325122e+01
461 1 4.47321657163525259e+01
462 1 3.25204709251818400e+01
463 1 3.16014360051065601e+01
464 1 2.97593074135138842e+01
465 1 2.73342811314643264e+01
466 1 1.83006710630585872e+01
467 1 8.06430852436786161e+00
468 1 -2.33946009705880664e+00
469 1 -2.42266070616212925e+00
470 1 5.68816993101952839e+00
471 1 4.70727315349669606e+00
472 1 3.94629350869784368e+00
473 1 6.30888520639416317e+00
474 1 5.36937527233286005e+00
475 1 4.29965170709778945e+01
476 1 2.68522572070525207e+01
477 1 4.29723470376781407e+01
478 1 4.43614836612764165e+01
479 1 4.47911109444399287e+01
480 1 5.83418680109947552e+00
481 1 3.43131503187948983e+00
482 1 1.43951523700423376e+01
483 1 1.43337115630633143e+01
484 1 1.39925389168869589e+01
485 1 1.36536078138000345e+01
486 1 3.81627937163025566e+00
487 1 5.96479279720359923e+00
488 1 2.92563029983187439e+00
489 1 2.01640388777484381e+00
490 1 3.18669931050095290e+00
491 1 2.80144923612907704e+01
492 1 6.49371459029050424e+00
493 1 1.17298620547904306e+01
494 1 3.30323113632724201e+01
495 1 3.03753137052814104e+01
496 1 2.25564791521271069e+01
497 1 3.00326556589249378e+01
498 1 1.69156995697711849e+01
499 1 1.02841864930360778e+01
500 1 1.37104380485554991e+01
501 1 6.19597629240962444e+00
502 1 -5.38913681663010458e-01
503 1 -8.28960820246979146e-01
504 1 6.07284288960299445e+00
505 1 1.74386602376765043e+00
506 1 2.82420862682394578e+01
507 1 3.74250598776817185e+01
508 1 3.82809138011378991e+01
509 1 3.24290627717599520e+01
510 1 1.43553039680545940e+01
511 1 1.31325180810188407e+01
512 1 2.94148870350522884e+00
513 1 2.89072407301674650e+00
514 1 -2.10448367199999486e-01
515 1 1.13409996549825323e+01
516 1 2.60307202549259813e+01
517 1 8.76652191655733404e+00
518 1 8.00262895680184494e-01
519 1 1.17579324906205129e+00
520 1 3.29078855326915587e+01
521 1 4.16356849179012212e+00
522 1 3.43727098423865556e+01
523 1 1.77510423481454893e+01
524 1 2.16118096085324751e+01
525 1 1.76822030132985155e+01
526 1 1.45590615112566262e+01
527 1 6.14865587871091446e+00
528 1 3.62113328963833303e-01
529 1 3.06270161931437190e+00
530 1 3.97738980102323048e+00
531 1 7.69578450122153335e+00
532 1 4.20670917666228945e+01
533 1 3.99062195009472234e+01
534 1 3.08013942678020562e+01
535 1 4.63076087733528539e+01
536 1 4.28623576722974420e+01
537 1 1.44005124766679096e+01
538 1 1.24585372338761822e+01
539 1 9.39285315527929576e+00
540 1 2.47739529810190149e+01
541 1 9.78552615482975519e+00
542 1 1.47572038857840795e+01
543 1 3.92277448138949154e+01
544 1 4.22079780579446151e+01
545 1 2.13376159788537478e+01
546 1 5.92069833806493229e+00
547 1 4.66187962535327713e+01
548 1 3.15949986506005196e+01
549 1 1.49282391195710975e+01
550 1 2.72266680973951480e+01
551 1 2.35353886735155484e+01
552 1 1.70981039655057465e+01
553 1 4.83582315252661310e+00
554 1 8.15217870716669779e+00
555 1 4.79866898066892400e+00
556 1 1.09275070963836018e+01
557 1 5.00664330559393136e+01
558 1 3.62638529781454437e+01
559 1 5.46566328153159304e+01
560 1 1.57699459498051500e+01
561 1 2.23077612569654278e+01
562 1 1.26913931836681613e+01
563 1 3.73063751783071851e+01
564 1 4.73636985583166279e+01
565 1 4.29861971829332887e+01
566 1 3.06136075444316340e+01
567 1 8.12511727909212667e+00
568 1 1.71529685532843175e+01
569 1 5.69966206803849289e+01
570 1 5.17207886012298559e+01
571 1 2.92484610264083145e+01
572 1 3.96560033057866406e+01
573 1 3.57522619256429266e+01
574 1 2.89216883058997212e+01
575 1 2.16066626648982094e+01
576 1 8.68179198514838291e+00
577 1 1.23407044286805618e+01
578 1 1.18349913509355709e+01
579 1 4.70473997510310440e+01
580 1 5.63586385231340969e+01
581 1 1.74486052496911910e+01
582 1 1.53355563064263745e+01
583 1 4.05239152437641721e+01
584 1 3.51585359305994274e+01
585 1 4.54892022158642035e+01
586 1 1.18358998777716025e+01
587 1 1.30181857967487673e+01
588 1 1.84490084639692178e+01
589 1 1.83459140540728072e+01
590 1 1.85609286593543850e+01
591 1 1.94639651025835114e+01
592 1 2.05077476234131204e+01
593 1 5.08486068477131070e+01
594 1 2.31845939432407455e+01
595 1 4.68141295688367833e+01
596 1 4.14976351260654681e+01
597 1 2.88532435084317989e+01
598 1 4.36360919683501152e+01
599 1 4.53974238767409446e+01
600 1 3.24856683731668170e+01
601 1 1.48561536894795179e+01
602 1 1.62887233398089073e+01
603 1 1.68327556274838557e+01
604 1 4.42001661476911138e+01
605 1 1.85720912969200000e+01
606 1 2.00407566747040526e+01
607 1 3.91058356480248577e+01
608 1 3.25755479600955979e+01
609 1 3.52622825869446288e+01
610 1 1.48949177280922047e+01
611 1 1.83964335889872714e+01
612 1 1.81064612935724689e+01
613 1 1.86543152814368547e+01
614 1 1.83117944764574965e+01
615 1 2.00589046224622827e+01
616 1 2.79914016765329805e+01
617 1 4.40182924928207200e+01
618 1 1.83915936067869517e+01
619 1 5.25871928142884215e+01
620 1 2.37591269460738914e+01
621 1 3.53161158229598442e+01
622 1 3.38549060683924736e+01
623 1 3.10802951556668710e+01
624 1 5.48355461275504368e+01
625 1 4.67854142974378249e+01
626 1 1.84334317695387320e+01
627 1 2.09431353225750918e+01
628 1 1.99401302118544699e+01
629 1 2.32218587661938400e+01
630 1 2.89196717175265157e+01
631 1 2.10255960625552270e+01
632 1 2.10508284952457885e+01
633 1 2.22420284060637208e+01
634 1 1.89979357035614420e+01
635 1 1.99702052165039881e+01
636 1 2.04840349361606435e+01
637 1 3.73830469555071545e+01
638 1 2.34819179972430057e+01
639 1 2.23220527363199608e+01
640 1 2.54546834563798789e+01
641 1 3.27116908743143568e+01
642 1 3.16511430974831747e+01
643 1 3.00554422980812532e+01
644 1 4.35806247234468813e+01
645 1 2.03653643604194912e+01
646 1 2.61113476986620228e+01
647 1 2.23052226867611303e+01
648 1 2.06603166846903896e+01
649 1 3.10229771609951754e+01
650 1 4.34984377331567913e+01
651 1 2.39760193760521005e+01
652 1 2.19369544444602447e+01
653 1 2.41700861592429987e+01
654 1 2.01329873607020637e+01
655 1 2.27787728909543112e+01
656 1 2.05741741470684296e+01
657 1 2.05911835058295161e+01
658 1 2.06220536423112115e+01
659 1 2.48547273581864943e+01
660 1 3.05792652761036479e+01
661 1 4.31608524340169382e+01
662 1 4.97506302255896458e+01
663 1 5.43295489676682664e+01
664 1 2.05196844831985743e+01
665 1 3.65997331298955757e+01
666 1 2.01961110582272170e+01
667 1 5.22718894613402298e+01
668 1 2.43884709187054760e+01
669 1 2.29227746534571892e+01
670 1 2.44993895471565786e+01
671 1 2.28182781958217298e+01
672 1 2.06257100778039728e+01
673 1 2.09952808670614104e+01
674 1 2.28287213631123116e+01
675 1 2.95733689991511923e+01
676 1 5.30381139371243364e+01
677 1 2.40351484337018277e+01
678 1 4.40364829858055060e+01
679 1 3.14405110880228733e+01
680 1 5.95287033221195969e+01
681 1 2.03838362218772211e+01
682 1 3.72756070026215554e+01
683 1 2.08460209134299781e+01
684 1 4.28220731161547619e+01
685 1 5.08464776422071409e+01
686 1 2.10812036729233441e+01
687 1 1.93423465040270521e+01
688 1 2.50579884930934398e+01
689 1 2.24777625983608225e+01
690 1 2.21156008900762622e+01
691 1 2.71628564948715407e+01
692 1 5.33902836472915112e+01
693 1 2.46648864219013682e+01
694 1 4.37886259699025047e+01
695 1 3.65439268702398863e+01
696 1 2.89275501345002972e+01
697 1 2.45217994766985932e+01
698 1 4.96764606571316705e+01
699 1 2.36959484697170737e+01
700 1 3.30180925501415103e+01
701 1 2.66180104687654371e+01
702 1 4.38933088822000386e+01
703 1 3.81580393639613646e+01
704 1 4.63029261745496825e+01
705 1 1.57101532414883440e+01
706 1 1.80714359488667142e+01
707 1 2.30563360728051912e+01
708 1 1.83939604252483875e+01
709 1 2.60104746665798672e+01
710 1 3.11428357202147339e+01
711 1 3.91304742000721149e+01
712 1 1.06508232310281628e+01
713 1 2.67772706514845105e+00
714 1 1.25180294476757048e+00
715 1 1.42517634611610733e+00
716 1 1.03878614101649038e+01
717 1 1.19499374280494379e+01
718 1 1.23124367687824137e+01
719 1 1.83650046321867544e+00
720 1 3.20726034973077105e+01
721 1 4.26404464410296029e+01
722 1 2.11646739597034141e+01
723 1 4.00512278039648422e+01
724 1 2.89684181781555168e+01
725 1 3.72036524040210423e+01
726 1 3.98552706845465607e+01
727 1 3.81791469126661127e+01
728 1 4.06001676745851086e+01
729 1 1.38008071085895114e+01
730 1 1.63003004304779680e+01
731 1 2.33495268916310437e+01
732 1 1.34662168906519515e+01
733 1 2.88894808801939078e+01
734 1 3.09793267765797502e+01
735 1 2.23590354872101216e+01
736 1 1.05392892675913661e+01
737 1 3.50056969102516735e+00
738 1 2.89480653396962673e+00
739 1 4.00337972997198221e+00
740 1 9.71602359599080501e+00
741 1 9.31339211033449921e+00
742 1 1.50580500316089410e+01
743 1 1.23147705533446068e+01
744 1 3.59324936321354613e+01
745 1 3.62027932634994301e+01
746 1 3.68764167539461880e+01
747 1 1.72721100773041414e+01
748 1 1.46238258804280452e+01
749 1 6.01696765227928410e+00
750 1 3.82129899358084089e+01
751 1 2.10998517616872228e+01
752 1 1.30949060898859564e+01
753 1 3.53702840022152074e+01
754 1 3.18255198889825301e+01
755 1 3.49085918331688561e+01
756 1 4.14490883149413634e+01
757 1 3.48239023339861760e+01
758 1 1.71260635704212589e+01
759 1 2.99008928061418047e+01
760 1 2.02041388219756932e+01
761 1 9.36350214349705645e+00
762 1 7.12021220431589974e+00
763 1 6.82067916629975546e+00
764 1 9.28506458678818447e+00
765 1 1.59227284607543353e+01
766 1 1.46408741055812186e+01
767 1 1.13174742076007320e+01
768 1 3.13331477693583089e+01
769 1 3.03808032518395414e+01
770 1 2.33160922598761111e+01
771 1 1.30394027577028861e+01
772 1 8.64993459608817084e+00
773 1 8.74648260256655696e+00
774 1 4.05163019988080251e+01
775 1 3.40151214606476060e+01
776 1 2.87863455024953154e+01
777 1 2.27870352237384886e+01
778 1 9.65892286492206154e+00
779 1 1.22781820181446655e+01
780 1 2.55402971243725894e+01
781 1 2.09161752294462531e+01
782 1 3.82354317341668590e+01
783 1 4.34972204340544621e+01
784 1 2.94951132960246873e+01
785 1 2.41053191738463077e+01
786 1 9.34593422584698708e+00
787 1 1.32058442099402136e+01
788 1 1.42957558438154582e+01
789 1 1.65575641863745737e+01
790 1 1.61002370791265790e+01
791 1 1.36821749323702608e+01
792 1 1.13635677510558839e+01
793 1 2.76471363098849281e+01
794 1 3.05646271197336254e+01
795 1 1.10669661347056714e+01
796 1 3.85283670852366598e+01
797 1 3.12611029456498350e+01
798 1 3.02383015184048425e+01
799 1 2.52415523662817698e+01
800 1 2.07534817696488645e+01
801 1 3.20789497643938830e+01
802 1 2.82116281476913251e+01
803 1 1.53413012562996016e+01
804 1 2.33981074503450692e+01
805 1 3.55928801394391314e+01
806 1 3.72297666828893270e+01
807 1 2.73109913373554285e+01
808 1 2.92920419238429943e+01
809 1 2.94069719785692563e+01
810 1 2.55932700954858880e+01
811 1 2.92832004407627053e+01
812 1 1.82064273288614551e+01
813 1 1.90369837867050791e+01
814 1 1.73177910120844558e+01
815 1 1.75934492138014456e+01
816 1 1.48340087653159518e+01
817 1 1.25412531540586727e+01
818 1 1.32951182455341588e+01
819 1 3.41565071400291487e+01
820 1 3.38037490636537683e+01
821 1 2.80922860429151093e+01
822 1 2.10863614175047793e+01
823 1 1.98447407210627347e+01
824 1 3.10262256235747884e+01
825 1 2.55294471743259912e+01
826 1 2.83512364394318652e+01
827 1 1.82862810103648066e+01
828 1 2.79007862225444114e+01
829 1 1.81884948696775375e+01
830 1 2.39196845204881967e+01
831 1 1.63074329531943540e+01
832 1 2.07127286749407631e+01
833 1 2.82668609388107157e+01
834 1 3.11956690029834398e+01
835 1 3.39545277978970361e+01
836 1 3.14796358607834215e+01
837 1 2.87338469217282295e+01
838 1 2.40412833554934373e+01
839 1 2.78580324559286616e+01
840 1 1.91656808332967827e+01
841 1 2.05285722581173040e+01
842 1 1.67380344750541745e+01
843 1 1.41498299555512457e+01
844 1 1.27765038472217647e+01
845 1 2.51646179660497964e+01
846 1 3.41769517793240851e+01
847 1 3.08359072485895460e+01
848 1 2.11574815336530371e+01
849 1 2.10667069723700493e+01
850 1 2.32539394908920904e+01
851 1 2.48106755012070117e+01
852 1 1.84843345180676053e+01
853 1 1.79275559418690378e+01
854 1 1.89434214808160526e+01
855 1 1.88767407247418291e+01
856 1 1.27014838534463514e+01
857 1 1.99728670046749599e+01
858 1 1.33210916816232299e+01
859 1 1.34636549119206457e+01
860 1 1.35835164709049394e+01
861 1 2.99273238379835043e+01
862 1 1.98669076656720556e+01
863 1 1.69938891116851849e+01
864 1 1.86101419958659626e+01
865 1 2.41849977713868896e+01
866 1 2.84899272109634687e+01
867 1 3.21727663825894368e+01
868 1 2.69151904166815861e+01
869 1 3.77861411063146164e+01
870 1 3.02250217127415866e+01
871 1 2.13692709406305283e+01
872 1 2.10685871603013766e+01
873 1 2.17788436343027598e+01
874 1 1.95215457391558722e+01
875 1 1.91079007139718584e+01
876 1 3.65549764575475393e+01
877 1 3.97665230171911190e+01
878 1 3.28318410313556726e+01
879 1 2.11357696774661576e+01
880 1 2.08145766850756253e+01
881 1 2.16525545510176372e+01
882 1 1.96352937964857617e+01
883 1 1.76450544262762179e+01
884 1 1.49700058906513043e+01
885 1 1.81548719598985890e+01
886 1 1.56435014136060833e+01
887 1 1.60526544688598065e+01
888 1 2.84082742530398384e+01
889 1 1.74301882788351463e+01
890 1 1.63502550278370116e+01
891 1 1.78998538131540705e+01
892 1 1.61745297149897631e+01
893 1 1.52461164234632420e+01
894 1 1.94249084937631338e+01
895 1 2.13403246248617293e+01
896 1 2.29485589335013778e+01
897 1 2.99997921914117711e+01
898 1 2.14315912467767653e+01
899 1 3.56212677767213748e+01
900 1 3.02323584313027283e+01
901 1 2.29179476751738420e+01
902 1 2.35490737646886643e+01
903 1 3.85171432535354938e+01
904 1 3.97678462837896660e+01
905 1 3.47592622233661785e+01
906 1 3.76634058429633853e+01
907 1 1.80954463383487187e+01
908 1 2.14014908741661678e+01
909 1 1.98635410301545008e+01
910 1 2.48070924791856768e+01
911 1 2.25680709203944261e+01
912 1 1.52042646769403067e+01
913 1 1.57140207256960149e+01
914 1 1.26185585084093770e+01
915 1 1.91696051217552075e+01
916 1 1.74451529045245266e+01
917 1 1.50453095615421244e+01
918 1 -1.16627995304452914e+00
919 1 -1.25722043056281874e+00
920 1 2.96632402188165116e+01
921 1 1.90991090736374964e+01
922 1 1.53735800934795286e+01
923 1 1.16796631209200843e+01
924 1 2.23143134300848480e+01
925 1 2.93480175703254176e+01
926 1 2.85600364974367622e+01
927 1 2.36393476099562783e+01
928 1 2.41636782643306951e+01
929 1 2.74912470816549934e+01
930 1 3.23483920023048555e+01
931 1 3.69144986016351311e+01
932 1 4.01545525402958461e+01
933 1 3.63212669524948808e+01
934 1 2.92490524011326229e+01
935 1 1.95024805771055227e+01
936 1 1.53039094775200404e+01
937 1 9.01489602478709129e-01
938 1 1.04187138756921516e+00
939 1 3.23032204810814818e+01
940 1 3.07165108207351842e+01
941 1 1.76626979913363833e+01
942 1 1.99136958893005662e+01
943 1 2.09065839559647548e+00
944 1 2.93420988031649159e+01
945 1 1.09158266665852342e+01
946 1 1.60354901367715676e+01
947 1 1.21246965198112608e+01
948 1 2.22241194654689451e+01
949 1 1.32844057229059462e+01
950 1 2.96476062797802449e+01
951 1 3.14049751607106771e+01
952 1 3.93737884734141872e+01
953 1 3.62260114805538294e+01
954 1 4.04648192563607125e+01
955 1 3.50201967928665923e+01
956 1 3.59628501281579247e+01
957 1 1.77516272068374406e+01
958 1 1.95269848548239566e+00
959 1 4.61753944827917540e+00
960 1 3.18416128424823555e+01
961 1 2.91953067182969370e+01
962 1 1.79359370278808221e+01
963 1 1.85680143143500551e+01
964 1 2.82542675813331385e+01
965 1 1.05549708305907419e+01
966 1 5.77904249560848271e+00
967 1 3.74259612781125028e+01
968 1 1.26892819742361134e+01
969 1 2.45593658509021857e+01
970 1 1.53758362204636541e+01
971 1 4.16862814909083781e+01
972 1 3.95716948674045739e+01
973 1 3.67297814115976564e+01
974 1 3.17061033782884998e+01
975 1 3.93680107889506772e+01
976 1 3.48900436196470238e+01
977 1 1.45221623381514995e+01
978 1 7.72577488677719426e+00
979 1 3.00383508584093128e+01
980 1 2.75057380473170419e+01
981 1 2.67741837726478309e+01
982 1 8.71198093089610204e+00
983 1 1.18205375257623224e+01
984 1 1.51897763920077420e+01
985 1 1.28107945595941874e+01
986 1 2.78222650354532988e+01
987 1 3.43055637976073982e+01
988 1 3.03632012357023449e+01
989 1 2.06793703599671481e+01
990 1 2.61104913976612671e+01
991 1 2.48568568127496548e+01
992 1 1.20118619318616719e+01
993 1 2.35916741610796166e+01
994 1 2.29638969362176901e+01
995 1 2.40594735886060782e+01
996 1 1.09638413488981090e+01
997 1 1.09865701622747949e+01
998 1 1.06233690853775720e+01
999 1 1.29542416454425737e+01
1000 1 1.72253274050193674e+01
1001 1 2.43308083085282938e+01
1002 1 2.43626747085143336e+01
1003 1 2.41267466108223800e+01
1004 1 1.46264283552365963e+01
1005 1 2.34843911888624248e+01
1006 1 2.26597029459297516e+01
1007 1 1.19411066193016282e+01
1008 1 1.40429664617990486e+01
1009 1 1.28349862751021160e+01
1010 1 1.53960210375302520e+01
1011 1 1.62164241499583959e+01
1012 1 2.00777923154970068e+01
1013 1 2.21771742680698161e+01
1014 1 1.97615872909605272e+01
1015 1 1.50798506829930581e+01
1016 1 1.86575111323439309e+01
1017 1 1.81095411226129315e+01
1018 1 1.69610989574809992e+01
1019 1 2.08402308349525889e+01
1020 1 1.95578264994749311e+01
1021 1 1.92964025429309913e+01
1022 1 2.14331466907175603e+01
1023 1 1.99536349695983724e+01
1024 1 1.91651641474941989e+01
1025 1 2.19619817824662320e+01
1026 1 1.86472600725231139e+01
1027 1 2.17261102790789060e+01
1028 1 2.01631650922952588e+01
1029 1 1.86393124677788897e+01
1030 1 1.79697731560143374e+01
1031 1 1.70346829888387390e+01
1032 1 1.83370155716465071e+01
1033 1 1.80577614033521705e+01
1034 1 1.68885615637449007e+01
1035 1 1.64366337619794827e+01
1036 1 1.69033637197776407e+01
1037 1 1.63788225230533975e+01
1038 1 1.56344694638882036e+01
1039 1 1.58131735659068298e+01
1040 1 1.55556705592594291e+01
