%%MatrixMarket matrix coordinate  real general
1040 1 1040
1 1 2.90018236980028007e+02
2 1 3.15670880225758822e+02
3 1 3.97338584384728506e+02
4 1 2.38065545781916541e+02
5 1 7.88154186510440553e+01
6 1 -1.25621333840209211e+01
7 1 -5.33954804101538912e+02
8 1 -1.11358450192726355e+03
9 1 -9.40470273507053321e+02
10 1 -1.26960796057614652e+03
11 1 -7.72449910232910838e+02
12 1 -1.22743021450523543e+03
13 1 -4.98748061858149185e+02
14 1 -1.85562114713061055e+03
15 1 2.08542300529843760e+03
16 1 -6.71319156508879246e+02
17 1 -2.60139026078542111e+03
18 1 -5.81187403751013960e+01
19 1 5.04370759321622756e+02
20 1 2.15291687517619539e+03
21 1 -2.20503198632351496e+03
22 1 -5.26559696976596911e+02
23 1 3.06699136887382201e+03
24 1 1.75665483653386082e+03
25 1 3.06379041422303544e+03
26 1 5.88612126462329684e+02
27 1 -7.36949204647022725e+02
28 1 1.91155039654028158e+01
29 1 -1.17407549523282751e+03
30 1 -1.52039567613718486e+03
31 1 5.89074312776211855e+02
32 1 -6.43468381897678455e+02
33 1 -7.28526833806598972e+01
34 1 -3.28171022408245051e+02
35 1 -2.88871768100007841e+02
36 1 6.97974851777014919e+02
37 1 1.20739480872631270e+03
38 1 7.17665013500160626e+02
39 1 3.73084310040222863e+03
40 1 -1.11418347101832228e+03
41 1 -2.01281327258559895e+03
42 1 5.82941303468585375e+02
43 1 3.58134801325632282e+01
44 1 4.73801735143758620e+01
45 1 1.78962603090687821e+02
46 1 5.97662469593538276e+02
47 1 5.19599894333450081e+01
48 1 1.22459922009171169e+03
49 1 6.44528296774692876e+02
50 1 -9.19391493046435357e+02
51 1 4.13126368125248609e+03
52 1 -1.54764568979515411e+03
53 1 5.93487507442934685e+01
54 1 -5.99369077576303880e+02
55 1 -3.53003366064263173e+03
56 1 -1.45516937328635663e+03
57 1 5.93609137653284051e+02
58 1 5.64372449641919729e+02
59 1 5.44746348918788144e+01
60 1 6.04474257980197649e+01
61 1 6.55051068376938019e+01
62 1 6.30951293607435559e+02
63 1 8.12074760915204337e+01
64 1 8.14069549257919647e+01
65 1 7.04695236325686238e+01
66 1 -2.59621361297823523e+03
67 1 1.30536204608347316e+03
68 1 6.88354363755136774e+02
69 1 1.49279659540944886e+03
70 1 -4.48256507942473945e+03
71 1 1.26929673794763545e+02
72 1 8.89198513884447266e+02
73 1 5.31369949318644103e+02
74 1 5.87329571427046858e+02
75 1 4.24430422114638532e+02
76 1 7.32523911861727015e+01
77 1 6.34813609220450772e+01
78 1 8.04445938000575467e+01
79 1 8.15516137704297961e+01
80 1 8.71042277627664703e+01
81 1 -2.13380026936904778e+03
82 1 -1.75975683578328631e+03
83 1 9.93322698644248732e+01
84 1 8.29579820992217236e+01
85 1 9.12893298680871794e+01
86 1 -1.48520619204390096e+03
87 1 1.81784688495046879e+02
88 1 4.95139075911970053e+02
89 1 4.07799108595984308e+02
90 1 -9.15927408969879139e+02
91 1 -1.44463599019486719e+03
92 1 -8.25294214816467615e+02
93 1 -9.83957496596275831e+01
94 1 4.97938984252191062e+02
95 1 1.78904489161661741e+03
96 1 2.41612508947333083e+02
97 1 9.55451044121432176e+01
98 1 1.04118235151893572e+02
99 1 5.38920339077770905e+01
100 1 7.84181063656283612e+01
101 1 -1.14587802619314198e+03
102 1 -1.18375173649389217e+03
103 1 1.00441392904827254e+02
104 1 1.19337932158720150e+02
105 1 -9.54543299424700251e+01
106 1 2.69806033805167544e+01
107 1 -3.25132943795655990e+02
108 1 7.42789889302810593e+01
109 1 -5.03026806213416080e+01
110 1 -3.54348778055745697e+02
111 1 -6.96152412917671427e+02
112 1 -7.17040225542180337e+02
113 1 2.84065136124508740e+02
114 1 -5.31697818415011838e+01
115 1 3.23829879450914802e+02
116 1 -5.17931821132873779e+02
117 1 6.31065615278510336e+02
118 1 1.03926800586479942e+02
119 1 1.21314987329449266e+02
120 1 2.74043521990021020e+02
121 1 1.94420736489498047e+01
122 1 -6.57676555144705162e+02
123 1 -5.62988425880888485e+02
124 1 1.03059421358964528e+02
125 1 5.35187897070790397e-01
126 1 -2.97773161012430705e+02
127 1 -2.92833023122227985e+02
128 1 -1.26522290381204243e+02
129 1 1.54322915505469780e+02
130 1 2.17851979896869210e+02
131 1 -1.19027040727932743e+02
132 1 -6.63715357416808615e+02
133 1 -4.25398584878452709e+02
134 1 -2.62947956962192279e+02
135 1 -3.20411935345124959e+02
136 1 1.66973451585126412e+02
137 1 8.09801603805045715e+02
138 1 -3.81759985966177794e+02
139 1 -3.23804540568393918e+02
140 1 -1.25224572736989967e+03
141 1 -2.35205692290585006e+02
142 1 9.71705518314436461e+01
143 1 1.13668880158600857e+02
144 1 -5.64763523958235751e+01
145 1 -7.89065841640560421e+01
146 1 -2.23341403335717899e+02
147 1 1.93691359881338521e+01
148 1 3.70284173844695886e+02
149 1 5.04038766508447111e+02
150 1 4.75192480395271488e+01
151 1 -1.90966946910868529e+01
152 1 -1.01015674464133667e+02
153 1 9.23723119014552729e+00
154 1 -6.68375033844679400e+00
155 1 2.61128232107298466e+01
156 1 -5.24777192147844573e+01
157 1 -2.28237361073655336e+02
158 1 -1.30800203645405617e+02
159 1 -1.39386190227146471e+02
160 1 -2.84669081865656779e+02
161 1 -1.92805524971540592e+02
162 1 9.17693770458267437e+01
163 1 3.20246981903114545e+02
164 1 -8.09990387263030556e+01
165 1 -1.72610570683608444e+02
166 1 1.84268549734427040e+02
167 1 -5.25839958406596907e+02
168 1 -4.44864826229016273e+02
169 1 -4.35628985314798285e+02
170 1 -3.05343096262086078e+02
171 1 -2.38233724169310733e+02
172 1 -8.26143691677638117e+01
173 1 2.71069718820688365e+02
174 1 1.51018270334731454e+02
175 1 5.98589735639562832e+02
176 1 1.52094574628570342e+02
177 1 8.20377967848528101e+02
178 1 3.62272679344881965e+01
179 1 -3.60107299822682192e+00
180 1 -1.25225089926703347e+02
181 1 4.27911521219513773e+01
182 1 7.95832530246127590e+01
183 1 -1.34298938142856116e+02
184 1 -1.63311435601346744e+02
185 1 -4.50437203126697980e+01
186 1 2.46222714087991648e+02
187 1 -6.58833312375913806e+02
188 1 -2.64542042907609630e+03
189 1 -1.62898846268662680e+02
190 1 -1.44026185231093137e+02
191 1 -1.24562626791139319e+00
192 1 -1.02166110896657401e+02
193 1 -9.85501301128402588e+02
194 1 2.60894170620075647e+03
195 1 1.01563849124073499e+03
196 1 5.17671537968004031e+02
197 1 3.76756108523121668e+02
198 1 -2.11790954936052032e+02
199 1 -1.19992137314343751e+02
200 1 -3.74652202295494476e+02
201 1 -6.10678518666810987e+02
202 1 -2.35264526794540529e+02
203 1 -9.00712584418166884e+00
204 1 1.94416749817641431e+02
205 1 4.30103916953018938e+02
206 1 9.10246132370121686e+00
207 1 5.81753584387659771e+02
208 1 2.97116839507725444e+02
209 1 2.55842816435710212e+01
210 1 -1.13918120060617014e+02
211 1 1.10689390906450285e+02
212 1 1.43708679939376964e+02
213 1 -1.03790503229453719e+02
214 1 5.09603439659082767e+02
215 1 -5.12156393383231602e+02
216 1 -4.74356970560761965e+02
217 1 -2.65575181685641655e+03
218 1 6.42655276679612513e+01
219 1 5.97918632881417921e+02
220 1 -8.57776822169427220e+01
221 1 3.02318613726708278e+01
222 1 -3.36633471544857321e+03
223 1 7.93099202175984374e+02
224 1 1.02450981701829505e+03
225 1 5.38006727792516244e+02
226 1 5.58150273781141436e+02
227 1 2.61789285652927788e+02
228 1 2.25317647583079747e+02
229 1 -2.28748033738465949e+02
230 1 1.31059897683344161e+02
231 1 4.13291248022335196e+02
232 1 3.77919273526979566e+02
233 1 4.02493019044980883e+02
234 1 7.12873407290031082e+02
235 1 1.00600537191365717e+02
236 1 -7.65717142354093170e+01
237 1 1.88443931059839855e+02
238 1 2.63243428421402086e+02
239 1 -1.08542169058808668e+02
240 1 4.91149906086882424e+02
241 1 6.84186471326805304e+02
242 1 4.58111207050652922e+02
243 1 1.44759002263140360e+02
244 1 8.00111082279428842e+02
245 1 1.05202101435048303e+03
246 1 1.37779633953337202e+03
247 1 -3.17581232640647890e+01
248 1 3.84505126107037484e+02
249 1 1.38856268733644174e+03
250 1 -5.94022022831738639e+00
251 1 1.27470494515129445e+02
252 1 5.23755712418823009e+02
253 1 1.70714085306136070e+02
254 1 3.36907326842791178e+02
255 1 2.48228814524928254e+02
256 1 1.27864126448817456e+03
257 1 4.14105726323786200e+02
258 1 6.49749494315205197e+02
259 1 1.82606539583563489e+02
260 1 6.23620716776650141e+01
261 1 8.60467995576586418e+02
262 1 1.63980896899996480e+02
263 1 5.24223232281539367e+02
264 1 1.71253626279867007e+02
265 1 2.71815703578585271e+02
266 1 4.22147879569896247e+02
267 1 1.76980696285397023e+01
268 1 3.89096013133535223e+02
269 1 -2.71787717929944301e+03
270 1 -2.68669837570642528e+02
271 1 2.01848737457105187e+02
272 1 -1.84665496295077423e+03
273 1 -2.24446573068599919e+00
274 1 2.10980939646557260e+02
275 1 2.68912626867259632e+02
276 1 -1.00227745578038798e+03
277 1 8.53609710172442533e+01
278 1 1.58687247777151197e+03
279 1 -1.97864931459862032e+03
280 1 -6.88446111451631708e+01
281 1 5.12237589457259475e+01
282 1 5.96880066517220342e+01
283 1 -2.28638442172201025e+02
284 1 3.74228778638057122e+02
285 1 -2.16314205447284394e+03
286 1 -9.62740592458103492e+01
287 1 -7.13618014006214594e+02
288 1 -5.45735480508971477e+02
289 1 -1.38485350416782552e+02
290 1 -4.87648065820673082e+01
291 1 1.91379114228798073e+02
292 1 1.77895218799574621e+02
293 1 8.63697885896319917e+02
294 1 -1.55507922446169744e+02
295 1 2.30022043458907262e+02
296 1 -4.79744004888226925e+02
297 1 -1.90994448443629977e+02
298 1 -6.29847891328550304e+02
299 1 2.08845381891534210e+01
300 1 -1.22808895061673240e+02
301 1 -3.99110957634431145e+02
302 1 -2.08190851567269526e+01
303 1 -8.15404966220091410e+02
304 1 -2.15306701391128399e+03
305 1 -4.74616580913967368e+02
306 1 -2.39498458129965968e+02
307 1 -1.27797951865731591e+02
308 1 -4.20310198113928891e+02
309 1 -1.91897172059340804e+01
310 1 1.63156507586629886e+02
311 1 -7.55157360267081543e+01
312 1 1.02475850152346180e+01
313 1 -4.49853826370879446e+01
314 1 -1.25026760478816840e+02
315 1 -2.33209165616748379e+02
316 1 -4.26692701735369866e+01
317 1 -1.89421459238015984e+02
318 1 1.63491545539549702e+03
319 1 -3.96413048519895881e+02
320 1 -1.42703998923553286e+02
321 1 3.18020656113858252e+02
322 1 1.51095097056562579e+01
323 1 1.62626611106871195e+02
324 1 -1.69361830204084868e+02
325 1 3.08201219200260326e+01
326 1 -2.97211093073797701e+03
327 1 5.20568310660181396e+02
328 1 2.04927955258253633e+03
329 1 -2.65029614318997290e+02
330 1 -4.09037334036887401e+00
331 1 -4.84713611773237062e+02
332 1 -1.21485220322323315e+02
333 1 1.58138824723595945e+02
334 1 8.49068884936594827e+02
335 1 1.78972922018625638e+02
336 1 2.44645168264988314e+02
337 1 -1.31211422225719161e+02
338 1 3.73378116983074165e+02
339 1 -1.94474859086559945e+02
340 1 -1.08298891574826982e+02
341 1 -2.52517823307866962e+02
342 1 -1.88218988422817013e+01
343 1 -1.94100112238288816e+01
344 1 1.26467841245996681e+02
345 1 1.04982397069298216e+02
346 1 2.34328791767670239e+01
347 1 -1.72462629379078649e+01
348 1 1.46180336908608012e+02
349 1 2.47003365646468893e+02
350 1 1.78110733015807000e+02
351 1 -3.24572056723800770e+01
352 1 -6.30504998666931300e+01
353 1 -1.65216374241169916e+02
354 1 -2.98298473294329263e+01
355 1 6.16221616141759228e+02
356 1 -2.89253646929636261e+02
357 1 6.94055198201586904e+02
358 1 3.64713824211079918e+03
359 1 6.77442050977306963e+02
360 1 2.70361635650581889e+02
361 1 -4.83511853742705213e+01
362 1 -3.52048736508448428e+02
363 1 -3.45730860133316764e+03
364 1 7.08937218337518516e+02
365 1 1.30380069159111235e+03
366 1 -1.91179447709144164e+01
367 1 -5.00430884294826001e+02
368 1 -1.06576165803377330e+03
369 1 -1.32161688707115263e+03
370 1 -5.53151598274940426e+01
371 1 1.00905698187182406e+03
372 1 7.99336154419960167e+02
373 1 5.24489497453903724e+01
374 1 8.51759147955992148e+02
375 1 2.06442658328774286e+02
376 1 -1.84567346501486156e+02
377 1 -1.41918422568345562e+02
378 1 -8.97321060216781916e+01
379 1 -1.60879230686704702e+01
380 1 -1.94409884191212718e+01
381 1 1.42389807436463968e+02
382 1 2.53798191010618382e+02
383 1 3.08646500658469563e+02
384 1 3.35968730419313488e+02
385 1 3.60500868174486641e+02
386 1 4.91124227223139201e+02
387 1 3.91262925320076818e+02
388 1 -1.46226805367855263e+02
389 1 -5.17453595515374545e+01
390 1 -2.53827442254928073e+01
391 1 -2.11419038765261661e+02
392 1 -2.43859690261851760e+01
393 1 2.68466244684856576e+02
394 1 -2.61147399229386963e+02
395 1 -3.29633602420045293e+02
396 1 -1.03351328854128099e+02
397 1 -4.99299942217319995e+02
398 1 -1.60106308956240127e+03
399 1 2.60827502167794421e+02
400 1 2.78545421221947151e+02
401 1 5.80779927643699921e+02
402 1 -6.93466338414614256e+02
403 1 -2.38449822347369445e+03
404 1 5.11610188225847651e+02
405 1 3.18272752141442012e+01
406 1 -1.45950226030806842e+01
407 1 2.54994936984533496e+02
408 1 -3.56723270270917112e+02
409 1 -8.53732258361391416e+01
410 1 -1.37433084234656651e+01
411 1 3.23303737545158754e+02
412 1 5.20541825729522088e+02
413 1 3.53635387528718638e+02
414 1 -8.67241495982345754e+01
415 1 1.11471254669277343e+02
416 1 1.56264328173706470e+01
417 1 -3.38414247469590634e+01
418 1 -2.14811591278709031e+01
419 1 -3.44844715266983997e+01
420 1 1.09198606715843653e+02
421 1 7.02684971411042181e+00
422 1 -1.56429180187846306e+00
423 1 -1.39340904104546706e+01
424 1 -1.93588962311661163e+02
425 1 -1.02077993348380096e+03
426 1 -5.45642896941604477e+02
427 1 7.85983438259870582e+02
428 1 2.25420321461640953e+02
429 1 5.90117895856772634e+02
430 1 -5.69127295844321068e+01
431 1 -2.88824020946424469e+02
432 1 -4.17222365912389080e+02
433 1 -7.69018816337182809e+00
434 1 -4.97167731776635904e+01
435 1 3.18506142553253369e+02
436 1 3.94904480939763516e+02
437 1 1.11346828509532543e+02
438 1 1.11463805083129415e+02
439 1 3.45567430722421847e+01
440 1 8.19507411788269557e+00
441 1 1.75807235267560742e+01
442 1 9.62944184659054514e+00
443 1 4.19089234458849603e+02
444 1 4.12324112215057085e+02
445 1 8.57281178122251020e-01
446 1 7.63514322091760533e+01
447 1 5.98020491642489027e+00
448 1 1.92918552584810470e+02
449 1 -1.24741664944266199e+03
450 1 -3.67028366363038742e+02
451 1 -4.48963811214865200e+03
452 1 4.30725566340942265e+01
453 1 4.78683400752057420e+00
454 1 1.16970324926548514e+02
455 1 5.81515351944022996e+02
456 1 1.84877880318042003e+02
457 1 2.96622833069615126e+02
458 1 1.64141436470640400e+02
459 1 2.54902244720923136e+02
460 1 -1.68346767635211272e+01
461 1 -5.94042671257897609e+02
462 1 6.44388757995310584e+02
463 1 -2.67713321214768769e+02
464 1 8.42407700357938012e+01
465 1 -7.73167795656254043e+02
466 1 2.22417508659493251e+02
467 1 4.43092947249797817e+02
468 1 1.11138275402417278e+02
469 1 1.11776675152110997e+02
470 1 1.06508440649253600e+00
471 1 9.92493336195184384e+00
472 1 2.73995304043393482e+01
473 1 1.53815391314047005e+01
474 1 3.76603161430182070e+02
475 1 -1.26673255833331018e+03
476 1 1.11758637264852183e+02
477 1 -8.44934689984742988e+01
478 1 -1.50978997254124170e+03
479 1 -6.16319472443164159e+02
480 1 -1.64654612744830675e-01
481 1 3.03429317622491261e+01
482 1 -4.03833509154448649e+01
483 1 -4.42006089637352133e+01
484 1 -5.21276443473726658e+01
485 1 -5.87180298524437205e+01
486 1 1.86462552066788270e+01
487 1 3.01314854948471066e+02
488 1 5.56814315682696375e+01
489 1 1.26269111396829231e+02
490 1 2.08186296625319613e+02
491 1 4.41726973557562189e+02
492 1 4.39306503848299485e+02
493 1 9.18026290565198110e+02
494 1 8.56471604165716030e+02
495 1 -6.01411365176334982e+01
496 1 -6.56672983792648921e+01
497 1 1.08579758669476163e+02
498 1 7.59855926045624756e+02
499 1 3.46061278621705696e+02
500 1 4.56993713504042432e+02
501 1 3.54426516370431273e+02
502 1 1.07713918584038979e+02
503 1 1.13446127059146121e+02
504 1 -2.17726967818665029e+00
505 1 4.00946527577549290e+01
506 1 9.84074284573504883e+02
507 1 5.85017023239981540e+02
508 1 5.81837629891377446e+02
509 1 5.41316864981735876e+02
510 1 -3.64876305591981023e+01
511 1 -6.62826545765892661e+01
512 1 2.89225494826160912e+01
513 1 2.65558976400091581e+02
514 1 1.15205711890512134e+02
515 1 3.05657245882066206e+02
516 1 -2.07532490027077401e+01
517 1 2.96405941504671205e+02
518 1 8.92370649763933557e+01
519 1 1.72957579645027124e+02
520 1 1.65429082852091454e+02
521 1 2.49890714018963365e+02
522 1 -7.38180012294909886e+01
523 1 9.40988502681537966e+01
524 1 4.29077385152542377e+02
525 1 2.68598262978087860e+02
526 1 2.58271720841909371e+02
527 1 2.58837936253362955e+02
528 1 1.05852178433145497e+02
529 1 1.24053134903787310e+02
530 1 3.85375265078417968e+01
531 1 -1.95421814335961521e+01
532 1 6.16451315264640840e+01
533 1 -1.25565847265842834e+02
534 1 2.24107180367048898e+02
535 1 -1.98946889624184053e+02
536 1 -4.31732243766395172e+01
537 1 -2.56716354257749870e+01
538 1 -7.27134837111170071e+01
539 1 1.67049474813048050e+02
540 1 -1.33560058959769989e+00
541 1 2.94979227059226218e+02
542 1 -1.61507601533864289e+01
543 1 -1.59329237171293983e+02
544 1 -2.19375826197203821e+02
545 1 1.77774206036101106e+02
546 1 9.49510720776975461e+01
547 1 -2.73058744388737352e+02
548 1 -7.00918121547668846e+01
549 1 7.49086041457845084e+01
550 1 1.07341774066427902e+02
551 1 1.76033211127844112e+02
552 1 3.32252986911837070e+02
553 1 1.37596830146181418e+02
554 1 2.24663006875264131e+02
555 1 8.10678885632025015e+01
556 1 5.31732936906895159e-01
557 1 -8.76714584534778623e+02
558 1 -9.37448706495055859e+01
559 1 -8.50867827993833089e+02
560 1 1.22752203256456145e+01
561 1 4.12612949228323700e+00
562 1 4.16322149400782905e+02
563 1 -1.29172430450566310e+02
564 1 -3.77581677055217881e+02
565 1 -2.31302084815899917e+02
566 1 2.81968143411560312e+00
567 1 5.41597279069961459e+01
568 1 1.62243330000783494e+01
569 1 -1.40259942523103950e+03
570 1 -6.60039385725634475e+02
571 1 -4.57031927526426429e+01
572 1 -2.02074045239025850e+02
573 1 -1.09800755564775542e+02
574 1 -1.29317469851647520e+01
575 1 7.35484595207880375e+02
576 1 9.79759310159688681e+01
577 1 3.16107897474711478e+02
578 1 1.28185200045249445e+02
579 1 -4.38783951728355476e+02
580 1 -3.03458029829579255e+03
581 1 3.01511608869172107e+01
582 1 7.09927245775111373e+02
583 1 -1.51944641263976251e+02
584 1 -5.98641221725899300e+01
585 1 -2.92108704749928052e+02
586 1 5.15617856765447691e+00
587 1 1.27275194263797484e+01
588 1 7.03308325616733327e+01
589 1 1.08181713282646996e+02
590 1 1.04024928842357056e+02
591 1 9.55492085485592071e+01
592 1 1.45091426729044656e+03
593 1 -7.02074414221387542e+02
594 1 3.32813285524831626e+00
595 1 -5.89232405446361724e+01
596 1 1.93351775101358747e+01
597 1 -5.64501122700724078e+00
598 1 1.80541397055692954e+02
599 1 -1.84461656584407751e+03
600 1 3.60863030323445128e+03
601 1 1.35987382333868929e+01
602 1 2.47138389449949436e+01
603 1 3.24806951465083785e+02
604 1 2.72676995879341803e+03
605 1 6.89862388445558992e+01
606 1 7.05186566137605951e+02
607 1 -4.32194151783146268e+01
608 1 -3.07651213351109787e-01
609 1 2.50923394982224490e+00
610 1 -4.01395062378747198e+01
611 1 -8.61535227042411549e+01
612 1 7.14531807555960938e+01
613 1 7.01535872533938658e+01
614 1 1.10314789302449569e+02
615 1 9.14578916319591286e+01
616 1 1.19512190868960374e+03
617 1 1.82362282779043608e+03
618 1 7.19080338703009261e+01
619 1 -8.78481700815045588e+03
620 1 5.74272415730030161e+01
621 1 5.33205336587285615e+02
622 1 1.03396725444736461e+02
623 1 -1.13156537016939698e+01
624 1 -3.06273995549958863e+03
625 1 -6.93473920425721531e+02
626 1 -6.59149376364720467e+01
627 1 -1.37718251343633597e+02
628 1 -2.89487796412031514e+02
629 1 2.05935377337930618e+02
630 1 3.62855546689872597e+02
631 1 -1.84010764218008234e+02
632 1 -1.09882844722932376e+02
633 1 -2.06206370247198834e+02
634 1 7.27060733815364699e+01
635 1 6.66727639103535807e+01
636 1 7.26683351911240010e+01
637 1 1.46970494453382827e+02
638 1 -3.22340594885521682e+02
639 1 -2.45333691077463214e+02
640 1 1.36738545904319881e+01
641 1 -1.07810301155423389e+02
642 1 6.84187332383756228e+01
643 1 2.70104314721250512e+03
644 1 -1.46607653626830228e+02
645 1 -3.24531753547438271e+01
646 1 1.05860738996011889e+02
647 1 7.55537241578964256e+01
648 1 8.02616656823695962e+01
649 1 8.02262225857527227e+01
650 1 -3.39442100884814749e+02
651 1 -3.61211880527688265e+02
652 1 -6.62056906021704208e+01
653 1 -2.91143076595394916e+02
654 1 7.87089535830450586e+01
655 1 5.33209911723179744e+01
656 1 1.29651694096978360e+02
657 1 1.53741272805318204e+02
658 1 1.18675919263119454e+02
659 1 2.60345170096697757e+02
660 1 -3.72345801843753179e+01
661 1 -7.02803912994851544e+02
662 1 -7.58359797894578719e+02
663 1 -1.79315162521768730e+03
664 1 2.27873195452897136e+02
665 1 -5.05163167164079425e+01
666 1 4.95746598084529126e+02
667 1 -5.33570701991144574e+02
668 1 -8.38571924557558759e+02
669 1 -1.13476473601751010e+02
670 1 -3.74993328536397144e+02
671 1 1.01488515820799051e+02
672 1 1.41778425328503829e+02
673 1 1.88008492367306189e+02
674 1 6.23738927320790026e+02
675 1 2.36553600755569022e+02
676 1 -1.52515098618529350e+03
677 1 -4.02571292447188057e+02
678 1 1.59750102346751845e+02
679 1 9.38457444294127185e+01
680 1 -9.49148745262627358e+02
681 1 8.99873664679995159e+02
682 1 6.96376490408495474e+00
683 1 1.46841896279172443e+03
684 1 -1.44964500813613597e+02
685 1 -3.89007753783275405e+02
686 1 3.10218675546612474e+02
687 1 2.30260392450396421e+03
688 1 -1.78666618709247132e+03
689 1 1.64738629621574660e+02
690 1 2.09928867695178013e+02
691 1 4.43735355222626652e+02
692 1 -1.01113598947713069e+03
693 1 -2.11715299452771546e+02
694 1 -9.11145553045829075e+01
695 1 1.50753033882861700e+02
696 1 3.37116329111214611e+02
697 1 2.54283917556958215e+02
698 1 -4.07061293063981054e+02
699 1 4.23838123462365900e+02
700 1 1.33317152876471283e+02
701 1 4.24908557752994057e+02
702 1 -1.89761353997424720e+02
703 1 -4.83902846674585447e+01
704 1 -3.62934259188600549e+02
705 1 9.21030230137585932e+02
706 1 4.77831457495941265e+02
707 1 -1.95068537902319036e+02
708 1 3.43543357752849772e+02
709 1 -4.48722853625343632e+01
710 1 1.43284938450973641e+02
711 1 -1.54023424545085476e+02
712 1 9.70438582042932438e+01
713 1 5.42836883457950194e+02
714 1 4.43729508482680330e+02
715 1 4.37022890014724965e+02
716 1 3.83660769935050666e+02
717 1 1.07010002755909657e+01
718 1 -1.00463996832755864e+01
719 1 4.67137415069074677e+02
720 1 6.09370768140050600e+01
721 1 -2.34465910348675010e+02
722 1 3.49121259160061470e+02
723 1 -4.33229454915535086e+02
724 1 7.21235153502747011e+01
725 1 -1.59206773937167441e+02
726 1 -1.19082130610591875e+02
727 1 -1.04811189113125835e+02
728 1 -3.40964391071053115e+02
729 1 1.09478937758091524e+03
730 1 1.34593975589132219e+03
731 1 2.52893585959756081e+02
732 1 4.00553107671358305e+02
733 1 -4.93075151983680087e+01
734 1 -4.68875861769218645e+01
735 1 3.64991019896332489e+02
736 1 1.17919178423483146e+02
737 1 5.82811331264119190e+02
738 1 4.28082304470558825e+02
739 1 3.63263113835573506e+02
740 1 4.41583825628649606e+02
741 1 2.91937162836200741e+02
742 1 -1.61630722521499393e+02
743 1 -2.60767846610518674e+01
744 1 -2.44924423624375891e+02
745 1 -1.22194417354706516e+02
746 1 -5.75379480117400490e+01
747 1 8.11791611257642671e+02
748 1 -1.19178764540485901e+02
749 1 1.17771498699076051e+03
750 1 -1.98438995190403602e+02
751 1 6.71654258664455938e+02
752 1 6.26734426934624707e+02
753 1 -5.85036884858194753e+02
754 1 -1.80340976719654986e+03
755 1 -3.03460787930765207e+02
756 1 -8.14520937241685715e+02
757 1 3.89950859295458656e+01
758 1 1.19241012220532957e+03
759 1 -8.23542388028555337e+01
760 1 1.08085561582585069e+03
761 1 2.61996179554908565e+02
762 1 4.70502758001626148e+02
763 1 2.73301417198102513e+02
764 1 6.31930754028247975e+02
765 1 -1.91725206274373733e+02
766 1 -2.57019130765900854e+02
767 1 3.43023620153429647e+01
768 1 2.00928952248135573e+02
769 1 1.02707470363337762e+02
770 1 -3.70977338893075768e+01
771 1 -5.30273521369099541e+01
772 1 4.44368412164045765e+02
773 1 4.89660098060882490e+02
774 1 -6.52478777843778857e+02
775 1 1.17567813186291403e+02
776 1 7.15976380961428305e+00
777 1 4.21061687166051456e+02
778 1 3.13608886416443909e+02
779 1 1.54987712772275063e+03
780 1 -1.30088569458002059e+01
781 1 1.70832998464316631e+02
782 1 -7.74237928461387924e+02
783 1 -2.29025234780145047e+03
784 1 2.78111794878848514e+02
785 1 7.72184918910726594e+01
786 1 6.25088587609134152e+02
787 1 -1.12261407235307914e+02
788 1 -3.64254717283863897e+02
789 1 -2.81943555486247305e+02
790 1 -1.83691450456625887e+02
791 1 -2.83236205814071582e+02
792 1 2.03582469520739522e+02
793 1 7.14680870666449550e+02
794 1 -1.26084780870720624e+03
795 1 2.11612856853084566e+02
796 1 -5.07487356417813544e+02
797 1 5.51851922611555779e+02
798 1 -9.68969903635740906e+01
799 1 1.40283181276568598e+02
800 1 -2.17340559835852105e+02
801 1 3.17690269823556605e+02
802 1 1.92175683104486090e+01
803 1 2.73515593460024888e+02
804 1 -4.32760474454961042e+01
805 1 -4.57506549101552707e+02
806 1 -4.04574769717961090e+02
807 1 1.37986468274803997e+03
808 1 -3.92752670791071296e+02
809 1 -1.48173948118438599e+01
810 1 2.76077792308995775e+01
811 1 -6.54256733758953828e+02
812 1 -8.20603249336032945e+02
813 1 -4.88478275315262863e+02
814 1 -2.26996177793646666e+02
815 1 -2.50169010659946679e+02
816 1 9.65044466320558740e+01
817 1 2.62963312289480314e+02
818 1 -3.30448433056035356e+01
819 1 -3.70142304639072518e+03
820 1 1.73121448145302082e+02
821 1 9.35132436603856604e+02
822 1 -2.07695782485774259e+02
823 1 -2.34187630397355662e+02
824 1 5.24387708999478718e+02
825 1 1.46085909811408243e+02
826 1 1.37857189362826063e+02
827 1 5.03322995219757772e+01
828 1 1.41670540415251071e+03
829 1 5.14818516169376963e+01
830 1 3.06687360457527234e+02
831 1 1.36073140267089173e+02
832 1 -8.17311263901059135e+01
833 1 -7.91034253239033660e+02
834 1 3.58243296371284771e+02
835 1 3.47757134505851241e+02
836 1 -1.39205213452030375e+03
837 1 2.91901708067834306e+02
838 1 2.56509151280088020e+02
839 1 -5.07819276173721505e+02
840 1 -2.47420220849842821e+02
841 1 -2.72891728838297411e+02
842 1 3.12412916706186543e+01
843 1 4.34908508187842699e+02
844 1 1.27121824323059923e+03
845 1 -2.84821440918905978e+02
846 1 9.19501554777965566e+02
847 1 3.05813101564599094e+02
848 1 -2.07100023263301807e+02
849 1 -1.80821130399135996e+02
850 1 3.11210438992728996e+02
851 1 3.14662632270461586e+02
852 1 4.89204839268843870e+01
853 1 6.21661974873818508e+01
854 1 3.77434304792709725e+02
855 1 4.52514525085248920e+01
856 1 5.04446359575747408e+02
857 1 -1.08788522174126385e+02
858 1 5.63633609008373242e+02
859 1 3.01759700362284946e+02
860 1 9.23424109228783436e+02
861 1 -3.68921796394262287e+02
862 1 7.33494353432169532e+01
863 1 2.09179273769715536e+02
864 1 -8.13434678263660089e+01
865 1 -1.63466053227592397e+02
866 1 -4.23746401689956087e+02
867 1 7.27287155155492471e+00
868 1 2.28539686171184741e+02
869 1 -2.66372289950280719e+03
870 1 2.98884608867791250e+01
871 1 1.61631196956378972e+03
872 1 5.59211169858624203e+02
873 1 5.60586048872591164e+02
874 1 -7.80923752462634724e+01
875 1 3.07933915175949437e+02
876 1 -3.40343296590277134e+02
877 1 -1.88093033134690677e+03
878 1 -7.83748138079330943e+01
879 1 -2.13638038066374094e+02
880 1 4.66951556127565198e+02
881 1 6.10427936214656825e+02
882 1 3.84753267381504926e+01
883 1 8.60575183587451278e+01
884 1 3.72459686535400351e+02
885 1 -2.66406599248059770e+01
886 1 1.69908604149843086e+02
887 1 1.98020412350102248e+02
888 1 -1.02867961672538911e+02
889 1 6.49272967839465991e+02
890 1 5.15486681897648850e+02
891 1 -9.98799924115479030e+01
892 1 1.97119665454675115e+01
893 1 9.94091784814366690e+01
894 1 -1.31330556845163323e+03
895 1 -5.47584763629223289e+02
896 1 2.31940981048666885e+02
897 1 -5.14645369563791490e+01
898 1 1.25614245319233328e+03
899 1 -6.99598102529484322e+02
900 1 -7.11558179513372266e+01
901 1 -3.83934955737711505e+02
902 1 -2.70056797241504967e+01
903 1 -4.98475671893276342e+02
904 1 -8.37895705573349233e+02
905 1 -2.46938598750137231e+02
906 1 -4.54695521101637382e+02
907 1 -7.05090464702641100e+01
908 1 4.64864756330261969e+02
909 1 6.35555485335470109e+01
910 1 -3.58462449336113380e+01
911 1 1.60909195782494301e+01
912 1 1.62724829127890132e+02
913 1 1.13117278457967041e+03
914 1 3.43398758817936823e+03
915 1 -2.16186034228588426e+02
916 1 -7.90559752870301509e+01
917 1 9.25588743684585040e+01
918 1 2.15536598696759057e+02
919 1 2.06854980059416476e+02
920 1 -8.46380707345090286e+01
921 1 -2.56770676391088102e+02
922 1 -6.94983156783777645e+01
923 1 6.45371516082053290e+02
924 1 -2.07355543602850844e+02
925 1 -6.50341020235005942e+01
926 1 7.75641108320777676e+02
927 1 2.48853505353153378e+03
928 1 8.00350611792234417e+02
929 1 -1.50869044705020983e+01
930 1 -4.66596283279546697e+02
931 1 -3.93340170498199313e+02
932 1 -6.10908495705804057e+02
933 1 -1.49119567145454340e+02
934 1 -1.56350798028548866e+02
935 1 -3.68749597032002782e+02
936 1 3.73483555622298269e+01
937 1 2.44341173737877369e+02
938 1 1.88657818857039189e+02
939 1 -1.01689006456159362e+02
940 1 4.33253087138572290e+00
941 1 -2.51503853922470654e+02
942 1 -5.45363326316621851e+02
943 1 2.61847230800171246e+02
944 1 4.58445636242019461e+01
945 1 1.25655339855045028e+02
946 1 -2.43647506004769866e+02
947 1 8.66504609379471049e+02
948 1 -1.08601800181063936e+03
949 1 1.49468217193107449e+02
950 1 3.68580811516015899e+02
951 1 3.33539323135029861e+02
952 1 -5.86948128564239710e+02
953 1 -3.71076010757681047e+02
954 1 -1.42685564095102950e+03
955 1 2.32361173994213289e+02
956 1 -6.06932928605393371e+01
957 1 -7.03562405292181779e+02
958 1 1.84463277230267778e+02
959 1 2.88100369596392454e+02
960 1 1.74362820133867501e+02
961 1 7.88299086071254749e+01
962 1 -5.02096263061656543e+02
963 1 -1.26158308178279458e+03
964 1 5.75908068752710918e+01
965 1 4.83452259632485209e+02
966 1 1.23016643829787085e+02
967 1 -4.10646051535177818e+01
968 1 3.26355098080902735e+02
969 1 1.23770436132595819e+03
970 1 -1.98052635698338918e+02
971 1 -1.57460709378234606e+03
972 1 -5.38145475508972481e+02
973 1 -8.91474310451912118e+01
974 1 1.43192063022967659e+03
975 1 -6.62608658988731531e+03
976 1 -1.34621530447382227e+01
977 1 -1.53428991477080842e+02
978 1 1.41034672448605278e+02
979 1 2.31194024896938934e+01
980 1 3.89458295434936943e+01
981 1 4.07529733825397784e+01
982 1 7.66731055539226531e+01
983 1 1.95819557853484582e+02
984 1 8.47128895675179251e+02
985 1 -4.01707428796802120e+01
986 1 1.75162031491970282e+02
987 1 -5.25614075008181089e+02
988 1 -9.45053603384077974e+01
989 1 2.05528265358285216e+03
990 1 2.11961140320478698e+01
991 1 2.89104449423557064e+01
992 1 1.65925265432946545e+00
993 1 2.49623147481582635e+01
994 1 2.53149998281780846e+01
995 1 2.61254480028241538e+01
996 1 1.89868957217284901e+02
997 1 8.77037433658300642e+02
998 1 5.34646932314085802e+02
999 1 1.72428946266910508e+01
1000 1 6.62171239159677953e+02
1001 1 2.76538828089368316e+01
1002 1 1.36992328082058847e+01
1003 1 2.31362207894120431e+01
1004 1 -7.33124624776850595e+01
1005 1 2.45670712902149440e+01
1006 1 2.57604451054621606e+01
1007 1 2.50402733726300397e+02
1008 1 2.47513945625539229e+01
1009 1 3.04579662941139759e+02
1010 1 3.50464218483288107e+02
1011 1 -1.52169005798303800e+02
1012 1 9.26214781020718618e+01
1013 1 2.65546398648967568e+01
1014 1 1.61477797418085345e+01
1015 1 5.40805819317787027e+01
1016 1 -3.32299595763514503e+02
1017 1 -8.48961759194254881e+01
1018 1 1.07472143548526077e+02
1019 1 -5.23609641802852479e+02
1020 1 4.17349709048521689e+01
1021 1 2.34868021100139091e+00
1022 1 -6.85070132496872247e+02
1023 1 -1.84011850965097807e+02
1024 1 -4.12064529978482312e+01
1025 1 -4.43904079253482109e+02
1026 1 1.97556092893804518e+01
1027 1 -4.12296602352701939e+02
1028 1 -1.71763859510555449e+02
1029 1 1.86050740271416224e+01
1030 1 4.95474723503835719e+01
1031 1 1.17417811614479319e+02
1032 1 1.84405235129778049e+01
1033 1 1.46965134364702891e+02
1034 1 1.34764855318136256e+02
1035 1 1.34087313103975788e+02
1036 1 1.72472068015788579e+02
1037 1 1.59785196316457842e+02
1038 1 1.45433656392434187e+02
1039 1 1.54650348639104124e+02
1040 1 1.48338672923256894e+02
