%%MatrixMarket matrix coordinate  real general
100 1 100
1 1 9.99674945416948180e-02
2 1 1.06493022546917296e-01
3 1 1.11308656617708363e-01
4 1 1.14005195235806350e-01
5 1 1.14642696379935655e-01
6 1 1.15725258660643440e-01
7 1 1.18552249659386974e-01
8 1 1.22084932262103915e-01
9 1 1.24788487897102299e-01
10 1 1.27184017380875147e-01
11 1 1.30685503232883166e-01
12 1 1.36671113928257482e-01
13 1 1.42340714111641786e-01
14 1 1.49463178165123639e-01
15 1 1.56611314351843250e-01
16 1 1.62034887090558383e-01
17 1 1.65306200612472060e-01
18 1 1.68079028662189767e-01
19 1 1.67796575184237157e-01
20 1 1.68910845482525968e-01
21 1 1.73248300717649212e-01
22 1 1.81526616387570450e-01
23 1 1.85634931915545226e-01
24 1 1.92776343000171768e-01
25 1 2.01119943949047808e-01
26 1 2.04902028981680889e-01
27 1 2.07863445065016833e-01
28 1 2.10094518676956832e-01
29 1 2.17698659185258464e-01
30 1 2.30054525743327881e-01
31 1 2.39476234396393678e-01
32 1 2.49278106700985574e-01
33 1 2.59520086513039316e-01
34 1 2.74515429330462357e-01
35 1 2.84705955168819580e-01
36 1 2.94710190020817497e-01
37 1 3.08033298168270908e-01
38 1 3.22740075866480791e-01
39 1 3.42057066998395665e-01
40 1 3.53325594580340518e-01
41 1 3.66053601810200191e-01
42 1 3.93855283226533459e-01
43 1 4.21524809013979262e-01
44 1 4.46542166560823517e-01
45 1 4.73765717411286980e-01
46 1 4.95914663086820584e-01
47 1 5.08584838151992624e-01
48 1 5.19929020580748968e-01
49 1 5.39041574505414678e-01
50 1 5.48449376668302957e-01
51 1 5.61763537364398435e-01
52 1 5.72540248897261073e-01
53 1 5.82515751889856603e-01
54 1 6.01581909479494414e-01
55 1 6.33444861698847062e-01
56 1 6.59883830430827656e-01
57 1 6.80595836516689423e-01
58 1 6.97631833202675300e-01
59 1 6.98922605086536475e-01
60 1 6.99609479363174636e-01
61 1 7.18186766726161108e-01
62 1 7.51559282138064000e-01
63 1 7.90337472790197948e-01
64 1 8.13944093974132588e-01
65 1 8.33912217196525196e-01
66 1 8.66673779758981855e-01
67 1 8.74205942469414077e-01
68 1 8.99355978660572486e-01
69 1 9.24699079561748349e-01
70 1 9.44369420250891878e-01
71 1 9.61718113632185734e-01
72 1 9.79344602446414414e-01
73 1 1.01167071673670605e+00
74 1 1.03545482662265220e+00
75 1 1.05472613951784933e+00
76 1 1.06976429747621049e+00
77 1 1.08195383782750221e+00
78 1 1.09145878048517897e+00
79 1 1.09972094000282983e+00
80 1 1.10647553361267548e+00
81 1 1.11196839667728486e+00
82 1 1.11642600581539342e+00
83 1 1.12003621935663156e+00
84 1 1.12295431237380794e+00
85 1 1.12530830219732469e+00
86 1 1.12720457643984262e+00
87 1 1.12872950253165016e+00
88 1 1.12995540883289758e+00
89 1 1.13093994304034751e+00
90 1 1.13173075422519775e+00
91 1 1.13236697982080825e+00
92 1 1.13287895991513232e+00
93 1 1.13329196932927645e+00
94 1 1.13362541377646875e+00
95 1 1.13389582713109638e+00
96 1 1.13411525053759110e+00
97 1 1.13429390256453932e+00
98 1 1.13443943052904306e+00
99 1 1.13455896763334652e+00
100 1 1.13465670642556282e+00
