%%MatrixMarket matrix coordinate  real general
4175 1 4175
1 1 1.52261671656909421e+01
2 1 1.54555299844040306e+01
3 1 1.53337985274263282e+01
4 1 1.57370525830019243e+01
5 1 1.62813281066123317e+01
6 1 1.60588625597554184e+01
7 1 1.73484284881067445e+01
8 1 1.67928437017897245e+01
9 1 1.73527747537014214e+01
10 1 1.78426569108286301e+01
11 1 1.76283081132875665e+01
12 1 1.81433799699196037e+01
13 1 1.81986143180216331e+01
14 1 1.85601015412075050e+01
15 1 1.95440264850004155e+01
16 1 2.06531430124361499e+01
17 1 1.95084744490924606e+01
18 1 1.81838627111528801e+01
19 1 1.90412510324902478e+01
20 1 1.95278200132986477e+01
21 1 2.02141095699321234e+01
22 1 2.08233092975822096e+01
23 1 2.09564902119110918e+01
24 1 2.15338245961487864e+01
25 1 2.05112038264313128e+01
26 1 2.05963666079493777e+01
27 1 2.14092805455968680e+01
28 1 2.31623966390460971e+01
29 1 2.32258780769552935e+01
30 1 2.08769991273591806e+01
31 1 2.09624730933644656e+01
32 1 2.15396910419987258e+01
33 1 2.37502040558918210e+01
34 1 2.55305909297854541e+01
35 1 2.21275322666677532e+01
36 1 2.41288474217541840e+01
37 1 2.51839501984860235e+01
38 1 2.03767650211130515e+01
39 1 2.06778610874228725e+01
40 1 2.10535214583650152e+01
41 1 2.53237314420779853e+01
42 1 2.68885170380175573e+01
43 1 2.69325383126428974e+01
44 1 2.65443149537954319e+01
45 1 2.47866556389288526e+01
46 1 2.25275040366870591e+01
47 1 2.06176968354717545e+01
48 1 2.14713789678912690e+01
49 1 2.75883671832710249e+01
50 1 1.92848433719014452e+01
51 1 1.91233498225641583e+01
52 1 1.96880138244893210e+01
53 1 1.96399119506812454e+01
54 1 1.77012732744483721e+01
55 1 2.83904648128879948e+01
56 1 2.81616798121096537e+01
57 1 2.91385600312572777e+01
58 1 2.91360148425257215e+01
59 1 2.68975051138287142e+01
60 1 2.02540990318333876e+01
61 1 2.39635213950140340e+01
62 1 2.18357722678254476e+01
63 1 1.83371933539966747e+01
64 1 3.02127741408024910e+01
65 1 3.06648175792017206e+01
66 1 1.50468132600165294e+01
67 1 1.51860199135826619e+01
68 1 1.67298626588004993e+01
69 1 1.74929024530488242e+01
70 1 1.55719167210501439e+01
71 1 1.48826846455540007e+01
72 1 1.47589213129411210e+01
73 1 1.89175678789404067e+01
74 1 2.98003408000727781e+01
75 1 2.95698794649978183e+01
76 1 2.98624498460635870e+01
77 1 3.13923517015824594e+01
78 1 3.04804222742893138e+01
79 1 3.01937566324629003e+01
80 1 1.78248468335201267e+01
81 1 1.94554658435464845e+01
82 1 3.15017558711805705e+01
83 1 2.51266143406502991e+01
84 1 2.72409465700677487e+01
85 1 1.59809456934337923e+01
86 1 2.94346666019760370e+01
87 1 2.08129790168811653e+01
88 1 2.28621201630640130e+01
89 1 1.53572649256643352e+01
90 1 3.14805635396319055e+01
91 1 3.28766454085608686e+01
92 1 1.57114578094608781e+01
93 1 1.60049083818046753e+01
94 1 1.44908903628382646e+01
95 1 1.45955336921517169e+01
96 1 1.37185715535215742e+01
97 1 1.48723851299357630e+01
98 1 1.39568985016412839e+01
99 1 1.38948176957569469e+01
100 1 3.11093384416760763e+01
101 1 3.14012127203372238e+01
102 1 3.25778429476739504e+01
103 1 3.10995791615678421e+01
104 1 3.02390431015330137e+01
105 1 3.05525076521390808e+01
106 1 1.71865578024542209e+01
107 1 1.91004036810772178e+01
108 1 3.25046309512889806e+01
109 1 2.45764778828958228e+01
110 1 2.61063012482288705e+01
111 1 2.75769603821972282e+01
112 1 2.88993052466268274e+01
113 1 3.06484058713096026e+01
114 1 1.62185949232815858e+01
115 1 1.35999707569134412e+01
116 1 1.33112091847043779e+01
117 1 3.19619053738424199e+01
118 1 2.33796835366324594e+01
119 1 2.11290407433301297e+01
120 1 1.45772078210856417e+01
121 1 3.20606279296617274e+01
122 1 3.14725270839317162e+01
123 1 3.43968800659169460e+01
124 1 3.45986725087960707e+01
125 1 3.39445436119990376e+01
126 1 1.64133808380605899e+01
127 1 1.76541398857662521e+01
128 1 1.29243527398419253e+01
129 1 1.23944306951299126e+01
130 1 1.35020265593781090e+01
131 1 1.48033184349124944e+01
132 1 1.28952874972319655e+01
133 1 1.86297511147223318e+01
134 1 3.33851769084229488e+01
135 1 3.11161655923184952e+01
136 1 3.09188628188723413e+01
137 1 3.04366122131221424e+01
138 1 3.05476225179092218e+01
139 1 1.86791895274366269e+01
140 1 3.13073058464514524e+01
141 1 3.24336010614502470e+01
142 1 3.25940134580469234e+01
143 1 3.33169771253676146e+01
144 1 3.39528172955363914e+01
145 1 2.72662229984270432e+01
146 1 2.59520288378790553e+01
147 1 2.87854448607615723e+01
148 1 3.02866153272244105e+01
149 1 3.17279041382500857e+01
150 1 1.76208231997307578e+01
151 1 1.62207700729059319e+01
152 1 3.68243940864773336e+01
153 1 3.65804660838969085e+01
154 1 1.21484065982472877e+01
155 1 1.33055054231269452e+01
156 1 2.50343050470510917e+01
157 1 1.54474216192699867e+01
158 1 3.39172452984741852e+01
159 1 2.14836887008421265e+01
160 1 2.34514627792530064e+01
161 1 1.39461021020121532e+01
162 1 3.17939103108712153e+01
163 1 3.66374130903038377e+01
164 1 3.52545128851826064e+01
165 1 3.65183673862903504e+01
166 1 1.15446267562855063e+01
167 1 1.79505672569080126e+01
168 1 1.65332312039174845e+01
169 1 1.20593600732136590e+01
170 1 1.39029579292224597e+01
171 1 1.21106858203583325e+01
172 1 1.82083005032394354e+01
173 1 1.93274348597693297e+01
174 1 3.14100830107013280e+01
175 1 3.24922791965907294e+01
176 1 3.88996084904970729e+01
177 1 3.43354614263783020e+01
178 1 3.31134024155248596e+01
179 1 3.29276400704620471e+01
180 1 3.38329826405238734e+01
181 1 3.55687085149355795e+01
182 1 2.50880615427456810e+01
183 1 2.68604173285329786e+01
184 1 2.83541602468614755e+01
185 1 3.00164398872299643e+01
186 1 3.16197127171610468e+01
187 1 1.88055708452688073e+01
188 1 1.74653103086752601e+01
189 1 2.05944156661492670e+01
190 1 3.88811172302459411e+01
191 1 1.24502962582128198e+01
192 1 2.69911845499861336e+01
193 1 1.54873666812420794e+01
194 1 1.70956695353899697e+01
195 1 3.65571432427684471e+01
196 1 2.42259503179210149e+01
197 1 1.39691728398094615e+01
198 1 1.50952644252004706e+01
199 1 1.19801696410107592e+01
200 1 3.14708408795748724e+01
201 1 3.82590165686158983e+01
202 1 3.82328069145339526e+01
203 1 3.95952884794623827e+01
204 1 1.77025970203049354e+01
205 1 1.18459017621647593e+01
206 1 1.15278050816037112e+01
207 1 1.27061515471440156e+01
208 1 1.63592148131111905e+01
209 1 1.36787784909281793e+01
210 1 1.70340246396989876e+01
211 1 1.73619873493140311e+01
212 1 1.66116008629280287e+01
213 1 3.99695967697260812e+01
214 1 3.24177940853741404e+01
215 1 4.00309906767782806e+01
216 1 3.66191060852188457e+01
217 1 3.46630630344483706e+01
218 1 3.34028784508636960e+01
219 1 3.31183426433789450e+01
220 1 3.60332597405230359e+01
221 1 2.63987941142456890e+01
222 1 2.88163750056363099e+01
223 1 3.03987141321350016e+01
224 1 3.22271369824383243e+01
225 1 1.98613927322495769e+01
226 1 2.01615637354348038e+01
227 1 2.25567211799138363e+01
228 1 3.97184136694530849e+01
229 1 1.35259120782456108e+01
230 1 2.64064046792876503e+01
231 1 2.93921738488626758e+01
232 1 2.82191393413281801e+01
233 1 1.68920004266221468e+01
234 1 1.93405389439309054e+01
235 1 3.93234240683110912e+01
236 1 3.88361704973077195e+01
237 1 2.57496669107164884e+01
238 1 1.61334712221972865e+01
239 1 1.20352144402956682e+01
240 1 1.28680218485893061e+01
241 1 2.93448581021437818e+01
242 1 3.80604727390822646e+01
243 1 4.05548515509174337e+01
244 1 4.06547134567179640e+01
245 1 1.61300429341031446e+01
246 1 1.23170310247612775e+01
247 1 1.18896923520167146e+01
248 1 1.41025051724165262e+01
249 1 1.61504581356841292e+01
250 1 1.63029409858015697e+01
251 1 1.64039197524193945e+01
252 1 1.50547224247445008e+01
253 1 1.55594463001042502e+01
254 1 1.20792895882295994e+01
255 1 3.71685054314959515e+01
256 1 3.39866245320889817e+01
257 1 3.51747608372168230e+01
258 1 3.32660019463635876e+01
259 1 3.61672980024422799e+01
260 1 2.82404029503484288e+01
261 1 3.11817531579239251e+01
262 1 3.35549994362700659e+01
263 1 2.32782027390382815e+01
264 1 2.36221298892017622e+01
265 1 3.77997122270989294e+01
266 1 3.88077227122897312e+01
267 1 3.11883989198412195e+01
268 1 3.94370739571052766e+01
269 1 1.41255212391553009e+01
270 1 1.55661859863469232e+01
271 1 2.80909043894104116e+01
272 1 3.01626699206334976e+01
273 1 2.20075490887506930e+01
274 1 1.93690148130197457e+01
275 1 3.99096642137179529e+01
276 1 3.85350052209922751e+01
277 1 2.91491422088878984e+01
278 1 2.86586384043584523e+01
279 1 1.95115238844090477e+01
280 1 1.77647555230872172e+01
281 1 2.36841231912721888e+01
282 1 1.26209252754026924e+01
283 1 1.39350945984592336e+01
284 1 2.41999133707460246e+01
285 1 3.01915814386190071e+01
286 1 3.67278389189557757e+01
287 1 3.91884520778683765e+01
288 1 3.97193675457474100e+01
289 1 1.38566510785576860e+01
290 1 1.19528683386672654e+01
291 1 1.23976945357923505e+01
292 1 1.55494410083218604e+01
293 1 1.53423664114936162e+01
294 1 1.40897347624679767e+01
295 1 1.49562911958415654e+01
296 1 1.68246976299879805e+01
297 1 1.68003304608104536e+01
298 1 1.69344977370862075e+01
299 1 1.69273820021946122e+01
300 1 1.68105387509517890e+01
301 1 3.59067201941057732e+01
302 1 3.41504173685819836e+01
303 1 2.98739414923335538e+01
304 1 3.30012786435614842e+01
305 1 3.48769601913948080e+01
306 1 2.63630619246798972e+01
307 1 2.78274903947392218e+01
308 1 3.76218966723413786e+01
309 1 3.78716373722327688e+01
310 1 3.64618743379589390e+01
311 1 3.24367774092818237e+01
312 1 3.75604194035005392e+01
313 1 1.75947649893330045e+01
314 1 1.52868121847756431e+01
315 1 1.65913963651396053e+01
316 1 1.77663184449140346e+01
317 1 1.74485261751717644e+01
318 1 3.07773125342934186e+01
319 1 3.19408705665753168e+01
320 1 2.38611789999484536e+01
321 1 2.21230642728949825e+01
322 1 3.85585316035416881e+01
323 1 3.73208455800481502e+01
324 1 2.27383041410617182e+01
325 1 3.59647404633385506e+01
326 1 3.91051069248214915e+01
327 1 3.91735972896476170e+01
328 1 3.24217361704175460e+01
329 1 3.25692751212991851e+01
330 1 3.83328968669240595e+01
331 1 2.04684140951032312e+01
332 1 1.74758704326843066e+01
333 1 1.21255292133159465e+01
334 1 1.33736270471809782e+01
335 1 1.60193044254880554e+01
336 1 1.50181826221977346e+01
337 1 2.78897043365792072e+01
338 1 2.36973429854495272e+01
339 1 3.13451862116068121e+01
340 1 3.38843336317021766e+01
341 1 3.78840828115146238e+01
342 1 3.62333754559353594e+01
343 1 3.76901151516937816e+01
344 1 1.27605187169485301e+01
345 1 1.17793482521400712e+01
346 1 1.19948837249637990e+01
347 1 1.33666765610182221e+01
348 1 1.44854347560927206e+01
349 1 1.43629078629079281e+01
350 1 1.72118156900847268e+01
351 1 1.69149596728861873e+01
352 1 1.70776595488077447e+01
353 1 1.71825325077687410e+01
354 1 1.70841404072487038e+01
355 1 3.45207857216365213e+01
356 1 3.60444593975286978e+01
357 1 2.87086954561753771e+01
358 1 3.10088794234055385e+01
359 1 3.65893686838117205e+01
360 1 3.79013880433279411e+01
361 1 1.60053960214620403e+01
362 1 3.68788484589500598e+01
363 1 1.65670490950692546e+01
364 1 3.59187787249757093e+01
365 1 3.40180728356510755e+01
366 1 3.44055949016198070e+01
367 1 3.45894222992649460e+01
368 1 1.87866902585393731e+01
369 1 1.71525229216199548e+01
370 1 1.56888383004324456e+01
371 1 1.61171479342526851e+01
372 1 3.27676737979144050e+01
373 1 3.41300915445598960e+01
374 1 1.44787726488423605e+01
375 1 1.48905217660279217e+01
376 1 2.71005038413402204e+01
377 1 3.84197900921331055e+01
378 1 3.88480004820632843e+01
379 1 3.59257294811337431e+01
380 1 3.43854940983826509e+01
381 1 3.76980391568055566e+01
382 1 3.68378807636417775e+01
383 1 2.57211547767286817e+01
384 1 3.28291579648505660e+01
385 1 3.81021601310139673e+01
386 1 3.87647405274295309e+01
387 1 3.42183458347391607e+01
388 1 3.62601013952647406e+01
389 1 3.68080328995433135e+01
390 1 2.24469250628847696e+01
391 1 1.55747524064416645e+01
392 1 1.97915289264140952e+01
393 1 1.17195935643821425e+01
394 1 1.25077217916908996e+01
395 1 1.83180465606412994e+01
396 1 1.47731880123840877e+01
397 1 1.74587999640767748e+01
398 1 2.81445969328420098e+01
399 1 2.43010574750173234e+01
400 1 3.03836040336744340e+01
401 1 3.25340948666973944e+01
402 1 3.47968634738670843e+01
403 1 3.56443046601653037e+01
404 1 9.41639342536078594e+00
405 1 1.25256274973235389e+01
406 1 1.37358959853624860e+01
407 1 1.20396698636065498e+01
408 1 1.35714447979900097e+01
409 1 1.77472037892696903e+01
410 1 1.74057649048318410e+01
411 1 1.75945188809747002e+01
412 1 1.78758377435068283e+01
413 1 3.55248860158255440e+01
414 1 1.94364465166194407e+01
415 1 3.27172681215795933e+01
416 1 3.12529166502660729e+01
417 1 1.98677443020241924e+01
418 1 1.57757676479664521e+01
419 1 1.58798520775672589e+01
420 1 3.48362709714576440e+01
421 1 3.59200954033397508e+01
422 1 1.29179593384525795e+01
423 1 1.36485521343110783e+01
424 1 3.14419557624736115e+01
425 1 3.37593053906470288e+01
426 1 3.82527713746562554e+01
427 1 3.60061261849655452e+01
428 1 2.06900513920938387e+01
429 1 3.86873840332402779e+01
430 1 3.87966684541072837e+01
431 1 3.85408815181349809e+01
432 1 3.75731640082387699e+01
433 1 3.78071913410219835e+01
434 1 3.72323119199990202e+01
435 1 2.75855203789663967e+01
436 1 3.05085500524642015e+01
437 1 2.93747782239423252e+01
438 1 3.73935847335024434e+01
439 1 3.83703113153801638e+01
440 1 3.94104872661559895e+01
441 1 3.60557187182073307e+01
442 1 3.48333441031596109e+01
443 1 1.29963516293450567e+01
444 1 2.22631778927979198e+01
445 1 2.83523818640973566e+01
446 1 1.21256160226596190e+01
447 1 2.59861616261165942e+01
448 1 1.40797372019363696e+01
449 1 1.54878286281242961e+01
450 1 1.72176214951855187e+01
451 1 1.98180524312443005e+01
452 1 1.21427673506855633e+01
453 1 1.36428609765750668e+01
454 1 2.06329913324863341e+01
455 1 1.67614475083696384e+01
456 1 1.98544937310814085e+01
457 1 2.73601479006234527e+01
458 1 2.25126505644412731e+01
459 1 2.48986089801282731e+01
460 1 2.77784672765931404e+01
461 1 3.04857736174244067e+01
462 1 3.30642587935713692e+01
463 1 2.75380506956086135e+00
464 1 9.03187981764523862e+00
465 1 1.06659196738189639e+01
466 1 9.60997940739427037e+00
467 1 3.22738318688608228e+00
468 1 2.92871047073940360e+00
469 1 3.40672801543848980e+00
470 1 7.50162908794510841e+00
471 1 1.26692117710029279e+01
472 1 1.39587895906813007e+01
473 1 1.32389850732770213e+01
474 1 1.35026187953982433e+01
475 1 1.85945616889675307e+01
476 1 1.83331017252899500e+01
477 1 1.86426773891354465e+01
478 1 1.87598193784174363e+01
479 1 3.66057442776634332e+01
480 1 1.23235349570710504e+01
481 1 3.25307411066044949e+01
482 1 3.73576250572121822e+01
483 1 3.86011455398528511e+01
484 1 3.75940009160026918e+01
485 1 3.27330192597092449e+01
486 1 2.29075764473048125e+01
487 1 3.88420875312797307e+01
488 1 3.87170623551900661e+01
489 1 3.88940433321437311e+01
490 1 3.96913058765738498e+01
491 1 3.80651412120162007e+01
492 1 3.85379286624704278e+01
493 1 1.20526081845980197e+01
494 1 3.04825538173847299e+01
495 1 2.82137815570823349e+01
496 1 2.74166978008689526e+01
497 1 3.68737589543044422e+01
498 1 3.80455569031777756e+01
499 1 3.92393089994462443e+01
500 1 3.49711350814661728e+01
501 1 1.29243617278685772e+01
502 1 2.31620957643897825e+01
503 1 2.60389251923293799e+01
504 1 2.60976905185411425e+01
505 1 2.72306691571727946e+01
506 1 2.54992682089757530e+01
507 1 2.75102644499426674e+01
508 1 1.29659837302633161e+01
509 1 3.02112577764980870e+01
510 1 1.44471583209232453e+01
511 1 1.71061049651296671e+01
512 1 1.32890648561263358e+01
513 1 1.50687970998470426e+01
514 1 2.26319489447820992e+01
515 1 1.87156341696380970e+01
516 1 2.14771122978354967e+01
517 1 2.56791381182746647e+01
518 1 2.06676230340891571e+01
519 1 2.29939074143305753e+01
520 1 2.62533702411156540e+01
521 1 2.95239677683132946e+01
522 1 2.98311320917565226e+00
523 1 2.79125295365951098e+00
524 1 1.61783412626158736e+01
525 1 1.46373785662002529e+01
526 1 1.25442914059165140e+01
527 1 8.49125305235414807e+00
528 1 1.03156220780386310e+01
529 1 3.56000906603091360e+00
530 1 3.22443698140343304e+00
531 1 5.74816326700590974e+00
532 1 4.37771739849006014e+00
533 1 6.83498618520210766e+00
534 1 1.43343560785286854e+01
535 1 1.67276327099563531e+01
536 1 1.53839285779855981e+01
537 1 1.52294518154208749e+01
538 1 1.90174051909515747e+01
539 1 1.78543912449598317e+01
540 1 1.64739884365417559e+01
541 1 1.89860021378967083e+01
542 1 1.86074651175012704e+01
543 1 1.74803842199627333e+01
544 1 1.70020231630075642e+01
545 1 1.93881163232661287e+01
546 1 1.93510898805375540e+01
547 1 1.99578519302318860e+01
548 1 1.96054725458771522e+01
549 1 3.51300531784157641e+01
550 1 3.89481204341628455e+01
551 1 3.87064884263826698e+01
552 1 2.46139617408947053e+01
553 1 3.87022244121080519e+01
554 1 3.14236462258714084e+01
555 1 2.90587649335863887e+01
556 1 2.41364603993309288e+01
557 1 2.51386613388271947e+01
558 1 3.90345308707889060e+01
559 1 3.97056241867235826e+01
560 1 3.91387996220343624e+01
561 1 3.92362752933260310e+01
562 1 1.26779890599350953e+01
563 1 3.39830738124465128e+01
564 1 3.69861234559504766e+01
565 1 3.44651844171714359e+01
566 1 2.60736677053409096e+01
567 1 2.58170652718833438e+01
568 1 3.84854169019982280e+01
569 1 3.74575211298897557e+01
570 1 3.86896070787436344e+01
571 1 3.95749998228063689e+01
572 1 3.64240849780869880e+01
573 1 1.35405133735178875e+01
574 1 2.47034328772166738e+01
575 1 2.75160788220508259e+01
576 1 2.43701776113403916e+01
577 1 2.40573555298138970e+01
578 1 2.32458277688311092e+01
579 1 2.45968020123271636e+01
580 1 2.58067489103326295e+01
581 1 1.39619247495919350e+01
582 1 1.50854661746632424e+01
583 1 3.34348247973593544e+01
584 1 3.14914837331061115e+01
585 1 1.82807229664651061e+01
586 1 1.53943345796598923e+01
587 1 1.42221146549874629e+01
588 1 1.48799840980424189e+01
589 1 1.74655093714935958e+01
590 1 2.30738854555684192e+01
591 1 2.07995696910373198e+01
592 1 2.30102558195802551e+01
593 1 2.20391809078902590e+01
594 1 2.46306901424543980e+01
595 1 2.47552362919974058e+01
596 1 2.45268214715546193e+01
597 1 2.07371896814730867e+01
598 1 2.46178284185055567e+01
599 1 2.94090563781571142e+01
600 1 3.56317619539871400e+00
601 1 3.51826157026083219e+00
602 1 3.51659862576523485e+00
603 1 1.22158249756915573e+01
604 1 1.50865336152686496e+01
605 1 9.31147213856165301e+00
606 1 1.15647553018258531e+01
607 1 4.18082731047889222e+00
608 1 5.61171815988439793e+00
609 1 8.20666096287585667e+00
610 1 1.66621628486640887e+01
611 1 1.67255615247798097e+01
612 1 1.72449374109791762e+01
613 1 1.74282859792532143e+01
614 1 1.89318351423007663e+01
615 1 1.84531115317594718e+01
616 1 1.75519598350071888e+01
617 1 1.85557132303859689e+01
618 1 1.90072125673829362e+01
619 1 1.83464939692820259e+01
620 1 1.99820666631616888e+01
621 1 2.00053735546503226e+01
622 1 2.02801142106763344e+01
623 1 2.02874608601615698e+01
624 1 3.90252367009823331e+01
625 1 3.19016844556096331e+01
626 1 2.96958552295586955e+01
627 1 2.35282402607749219e+01
628 1 2.62223056263696996e+01
629 1 3.93533243430218036e+01
630 1 3.96359542381386802e+01
631 1 3.89940147555750443e+01
632 1 2.37953251512916104e+01
633 1 1.32178462832411654e+01
634 1 3.56254217765670944e+01
635 1 3.70100980286688213e+01
636 1 3.52981253986237746e+01
637 1 2.31462740773731461e+01
638 1 2.42480891115326287e+01
639 1 3.85931416035429393e+01
640 1 3.78780646963882148e+01
641 1 3.80014582918136909e+01
642 1 3.91310291990778865e+01
643 1 3.72972992600725632e+01
644 1 3.50033976942912091e+01
645 1 1.43235036259596065e+01
646 1 2.64646201216213015e+01
647 1 2.89915253898290004e+01
648 1 3.10231109068984523e+01
649 1 2.41068036762788473e+01
650 1 2.54242154562512965e+01
651 1 2.22022256957872592e+01
652 1 2.27553272684849333e+01
653 1 2.78259668061284664e+01
654 1 1.45154618401152629e+01
655 1 1.46649717474004628e+01
656 1 1.70013651803333019e+01
657 1 1.57330738655834566e+01
658 1 3.48416231714752627e+01
659 1 3.25792695669450865e+01
660 1 1.71378255348475150e+01
661 1 1.91934628467622943e+01
662 1 1.61634148975009317e+01
663 1 1.68671577841813090e+01
664 1 1.55619099849665581e+01
665 1 1.97244357651594235e+01
666 1 2.22966223772255354e+01
667 1 2.25653386416338719e+01
668 1 2.34800365663521475e+01
669 1 2.20121685948192187e+01
670 1 2.36517450397137061e+01
671 1 2.35995246848813629e+01
672 1 2.11336897456119495e+01
673 1 2.30288244249131822e+01
674 1 3.45561870636022661e+01
675 1 4.74250099830997840e+00
676 1 4.79929053415524720e+00
677 1 1.60113177476040285e+01
678 1 1.38680678489512133e+01
679 1 1.15785762053032126e+01
680 1 6.19271644556682510e+00
681 1 7.76557749649934692e+00
682 1 1.02568973349024670e+01
683 1 1.67600722017388790e+01
684 1 1.78886845193654302e+01
685 1 1.80280882719340845e+01
686 1 1.80085815450805811e+01
687 1 1.82878844502459899e+01
688 1 1.89427419446827692e+01
689 1 1.85793940602943373e+01
690 1 1.86261112681610328e+01
691 1 1.86843766134816569e+01
692 1 1.89846977582716967e+01
693 1 2.04276082451494148e+01
694 1 2.05290102181521164e+01
695 1 2.05706306944968560e+01
696 1 3.92465770215190375e+01
697 1 2.32014297334113273e+01
698 1 2.06208108367042477e+01
699 1 1.39673878712279134e+01
700 1 3.73363063132836146e+01
701 1 3.64441144692338099e+01
702 1 3.61472531986273822e+01
703 1 2.23470359904673224e+01
704 1 2.30153302903980261e+01
705 1 3.86376197473052230e+01
706 1 3.80298038738175705e+01
707 1 3.78669786072655867e+01
708 1 3.77494823271498134e+01
709 1 3.39946748142334130e+01
710 1 3.75058668936113762e+01
711 1 1.61244169010070237e+01
712 1 1.53046414650110183e+01
713 1 2.23091721292022740e+01
714 1 2.39175502230176349e+01
715 1 2.77266055236414459e+01
716 1 3.04224302222332668e+01
717 1 2.75501647632640108e+01
718 1 2.57747042206676582e+01
719 1 3.32973828039000281e+01
720 1 2.17910576182217142e+01
721 1 2.21820068080804731e+01
722 1 2.53695270635972641e+01
723 1 1.54097664632191762e+01
724 1 1.51616998489211507e+01
725 1 1.46907517408455259e+01
726 1 1.48833496384103441e+01
727 1 1.60088328311487125e+01
728 1 1.78516176495708123e+01
729 1 1.80237278832763437e+01
730 1 1.73631838097148616e+01
731 1 1.70082035278932295e+01
732 1 3.55017097124556287e+01
733 1 3.24946902261886805e+01
734 1 2.07131922359460248e+01
735 1 1.86137795319533872e+01
736 1 1.83744378120037055e+01
737 1 2.19904359034310986e+01
738 1 1.82611193838039156e+01
739 1 1.65383218670737229e+01
740 1 2.08675964319576188e+01
741 1 2.29193484328563670e+01
742 1 2.27810181635765510e+01
743 1 2.21713113670512847e+01
744 1 2.30465649586782426e+01
745 1 2.23166965802575064e+01
746 1 2.22630245539466607e+01
747 1 2.23651450760533201e+01
748 1 3.89555829783374250e+01
749 1 7.37845757715368666e+00
750 1 1.51314373602405681e+01
751 1 1.30004477475373577e+01
752 1 9.76901163015569196e+00
753 1 1.19631174356357217e+01
754 1 1.80299535687957260e+01
755 1 1.71758278627774388e+01
756 1 1.76079121928635587e+01
757 1 1.83004518839130057e+01
758 1 1.84935734096159692e+01
759 1 1.87183793459818020e+01
760 1 1.86848107631840890e+01
761 1 2.06054274147345495e+01
762 1 2.06179047785621172e+01
763 1 2.05732070829888052e+01
764 1 3.69159242179253866e+01
765 1 3.77536956283850529e+01
766 1 3.70987833140840308e+01
767 1 2.20804737708482044e+01
768 1 3.79603176992961124e+01
769 1 3.76334384497329566e+01
770 1 3.42590222947760026e+01
771 1 3.82135982778319416e+01
772 1 1.75225799279581764e+01
773 1 1.80827611502957950e+01
774 1 2.19612015542865748e+01
775 1 2.19205027041008726e+01
776 1 2.53023172639543823e+01
777 1 3.00653014915670518e+01
778 1 2.78634999235428396e+01
779 1 3.65000185001362993e+01
780 1 3.32277653041971419e+01
781 1 2.96559027486427453e+01
782 1 2.19530282307115812e+01
783 1 2.28831404173964081e+01
784 1 2.61339652241891542e+01
785 1 1.53072019530577386e+01
786 1 1.52870635289367396e+01
787 1 1.48357663119407395e+01
788 1 1.62770282458245106e+01
789 1 1.79776057024416609e+01
790 1 1.79770891202975847e+01
791 1 1.77738867072504476e+01
792 1 1.78741459167730952e+01
793 1 1.79075145202917767e+01
794 1 1.70573138425024986e+01
795 1 3.55398811121398808e+01
796 1 3.27144557972914782e+01
797 1 2.32286165859617064e+01
798 1 2.07070305101714567e+01
799 1 2.16343890476690746e+01
800 1 3.78479307517508090e+01
801 1 2.19430929234894876e+01
802 1 2.23589035641104239e+01
803 1 1.94574212064695438e+01
804 1 1.74711369998427948e+01
805 1 2.15270064512410002e+01
806 1 2.41755892517463558e+01
807 1 2.39212087532890898e+01
808 1 2.23588303676820281e+01
809 1 2.26015725258814832e+01
810 1 2.18983632799398968e+01
811 1 3.86398304927930027e+01
812 1 3.93218829324071208e+01
813 1 3.83484487388173108e+01
814 1 1.06122189218611354e+01
815 1 1.61386812408164424e+01
816 1 1.49251134444926485e+01
817 1 1.41013877163116597e+01
818 1 1.29259421485430277e+01
819 1 1.79829936554748500e+01
820 1 1.72708651099481649e+01
821 1 1.67771963189591027e+01
822 1 1.69655755328124656e+01
823 1 1.77268068193531931e+01
824 1 2.05424124899810039e+01
825 1 2.05325663551398705e+01
826 1 2.03005690745589824e+01
827 1 2.23502604379004630e+01
828 1 2.73113348275148518e+01
829 1 3.04113448106949704e+01
830 1 1.81242357890643362e+01
831 1 1.64995461687551384e+01
832 1 3.43255470698214609e+01
833 1 3.02495163894307950e+01
834 1 2.24447114429334604e+01
835 1 2.20636087847134092e+01
836 1 2.46154118097574717e+01
837 1 2.43545409563059607e+01
838 1 2.42000129199381888e+01
839 1 2.91718608417903091e+01
840 1 1.72180928294194899e+01
841 1 1.64690550562941667e+01
842 1 3.54197809246108690e+01
843 1 1.55506810831594500e+01
844 1 1.51037884457812819e+01
845 1 1.56889564414991156e+01
846 1 1.80031109154029636e+01
847 1 1.76731157675221020e+01
848 1 1.83692944892533561e+01
849 1 1.83290519547657631e+01
850 1 1.78731651433800671e+01
851 1 1.69946302719279849e+01
852 1 3.31572790835466549e+01
853 1 2.55848327536340108e+01
854 1 2.38232071070288143e+01
855 1 2.49866764587326600e+01
856 1 2.43749860749126732e+01
857 1 3.64831528678391024e+01
858 1 3.61020037959980584e+01
859 1 2.69898773341717870e+01
860 1 2.41903236544647875e+01
861 1 2.28439353279182669e+01
862 1 1.53946535130050641e+01
863 1 1.96804487829937962e+01
864 1 1.81054752509078760e+01
865 1 2.21907229854505736e+01
866 1 2.57213980467964412e+01
867 1 2.22283984695944383e+01
868 1 2.23433035668028630e+01
869 1 3.63176488901724071e+01
870 1 3.83418862150079391e+01
871 1 3.88170006595861636e+01
872 1 3.64211532217879537e+01
873 1 3.75470660794207376e+01
874 1 1.31261394007023835e+01
875 1 1.57305477028463496e+01
876 1 1.47375658548810371e+01
877 1 1.43176308916359201e+01
878 1 1.71451442160824250e+01
879 1 1.65344916655126504e+01
880 1 1.52477919054482953e+01
881 1 1.58695369659332108e+01
882 1 2.02305941377021092e+01
883 1 2.02905606716866487e+01
884 1 1.96314995499085114e+01
885 1 2.97987858642939010e+01
886 1 1.80942225727378805e+01
887 1 3.33133058222513441e+01
888 1 1.66475381354824883e+01
889 1 3.26669121992956946e+01
890 1 3.14641038861998581e+01
891 1 2.29116046824732997e+01
892 1 2.25160750037545903e+01
893 1 2.42283505530505643e+01
894 1 2.63893852782164835e+01
895 1 2.77809176613436861e+01
896 1 2.60802167903658528e+01
897 1 2.77950540264777963e+01
898 1 2.71635715190923186e+01
899 1 1.69892705578983261e+01
900 1 1.60336313669468709e+01
901 1 3.41184620062051778e+01
902 1 3.34036584736181439e+01
903 1 1.63252711437467219e+01
904 1 1.58219172648217974e+01
905 1 1.63709286214621059e+01
906 1 1.76709370768597083e+01
907 1 1.83175413559178324e+01
908 1 1.83991750322943908e+01
909 1 1.80871473083152914e+01
910 1 1.77619555708329742e+01
911 1 1.77933185508877401e+01
912 1 1.72012974337454310e+01
913 1 3.12434601801380474e+01
914 1 2.83381453043889735e+01
915 1 2.86359505450288907e+01
916 1 2.65180180120951050e+01
917 1 2.75135226445237357e+01
918 1 1.52920367208596311e+01
919 1 3.34628211222131497e+01
920 1 3.48861468609138896e+01
921 1 3.35429577805457910e+01
922 1 3.66871361431354401e+01
923 1 3.54040172129420725e+01
924 1 3.08620384750937689e+01
925 1 2.62717311323115297e+01
926 1 2.43224539820959897e+01
927 1 2.35227410679892408e+01
928 1 1.44089479417100375e+01
929 1 1.46401998639388289e+01
930 1 1.39435358893007564e+01
931 1 1.99395344703549213e+01
932 1 2.27862821140407306e+01
933 1 2.51646520162530187e+01
934 1 2.38495751261972018e+01
935 1 2.41475225438852874e+01
936 1 2.33540815534652957e+01
937 1 2.29296714197260485e+01
938 1 3.49896396930060760e+01
939 1 3.69366536344649958e+01
940 1 3.45201454488245005e+01
941 1 1.45556626644119547e+01
942 1 1.51747475929587061e+01
943 1 1.58132174085174420e+01
944 1 1.62059494914985081e+01
945 1 1.49066415007420954e+01
946 1 1.51170953959377190e+01
947 1 1.39383679585593558e+01
948 1 1.97229750405789979e+01
949 1 1.87066114682501485e+01
950 1 1.92328394304363002e+01
951 1 1.88801055606754140e+01
952 1 1.88709276214308055e+01
953 1 3.07419864416428368e+01
954 1 2.32703079864867632e+01
955 1 2.66074024112647152e+01
956 1 2.88007296738616780e+01
957 1 2.81155644961568321e+01
958 1 2.91050961592520849e+01
959 1 2.40366352108949393e+01
960 1 1.70439131481048136e+01
961 1 1.62193974627953850e+01
962 1 3.28361994199888798e+01
963 1 3.23198170312459823e+01
964 1 1.69612495137421071e+01
965 1 1.67481896298837825e+01
966 1 1.74708199424700155e+01
967 1 3.20350747601727619e+01
968 1 1.55773779796406107e+01
969 1 1.58458406614083867e+01
970 1 3.20270769749206821e+01
971 1 1.81943909834422008e+01
972 1 1.80757747831756248e+01
973 1 1.78641011009683837e+01
974 1 1.88048237116556898e+01
975 1 1.74337959941552221e+01
976 1 1.77798793504603374e+01
977 1 3.06413987280083191e+01
978 1 2.85222444483635016e+01
979 1 3.24592455657296810e+01
980 1 3.08937653415877023e+01
981 1 2.88926340763241178e+01
982 1 3.00595622017441464e+01
983 1 1.50343602373659877e+01
984 1 3.57084354325685922e+01
985 1 3.42549089957935848e+01
986 1 3.16587645456481184e+01
987 1 2.67652131881716535e+01
988 1 3.20990374409026131e+01
989 1 3.28609379415789107e+01
990 1 3.06871649246596370e+01
991 1 3.21847517252555093e+01
992 1 3.30328708352293816e+01
993 1 3.51173438298677922e+01
994 1 2.99022348927982620e+01
995 1 3.22700735397376945e+01
996 1 1.45059937260683967e+01
997 1 2.92694815377566080e+01
998 1 2.69693705008491662e+01
999 1 2.52780493987189807e+01
1000 1 2.40289891824877984e+01
1001 1 1.36909410086201042e+01
1002 1 1.39324540846056113e+01
1003 1 1.31508674849822249e+01
1004 1 2.16242977766662285e+01
1005 1 2.42637107266268259e+01
1006 1 2.68361346503850591e+01
1007 1 2.51191932304619812e+01
1008 1 2.40693577369288825e+01
1009 1 2.36255614293488883e+01
1010 1 3.44176158846192379e+01
1011 1 3.07736600708340333e+01
1012 1 1.51932470992337940e+01
1013 1 1.53923801832186413e+01
1014 1 1.44970528150681730e+01
1015 1 1.31184469918911599e+01
1016 1 1.43210555725589455e+01
1017 1 1.90395941401615367e+01
1018 1 1.90625321235046989e+01
1019 1 1.77139053995803586e+01
1020 1 1.85169875525276630e+01
1021 1 1.86165177911615523e+01
1022 1 1.87692626102943017e+01
1023 1 1.89444059491541168e+01
1024 1 1.88354124307141824e+01
1025 1 1.87965729734169074e+01
1026 1 1.14559593223476881e+01
1027 1 1.66134558206407448e+01
1028 1 3.15926228022994806e+01
1029 1 1.74522079223834012e+01
1030 1 1.71994544978100379e+01
1031 1 1.28120272938036450e+01
1032 1 3.30994433142418814e+01
1033 1 1.76589684262895723e+01
1034 1 1.63019486754241534e+01
1035 1 3.12843039731790498e+01
1036 1 3.09989439918457741e+01
1037 1 2.07526395941014634e+01
1038 1 1.66814130070531625e+01
1039 1 1.62425536647564286e+01
1040 1 1.65819050059255950e+01
1041 1 3.06672004639729394e+01
1042 1 1.78738648354543237e+01
1043 1 1.74560233847817479e+01
1044 1 1.76793106723749425e+01
1045 1 1.78825808051580459e+01
1046 1 1.83882920737252462e+01
1047 1 1.94130229566896766e+01
1048 1 1.78576102627175466e+01
1049 1 3.04302975246648622e+01
1050 1 2.88259631391408959e+01
1051 1 3.24697458074376399e+01
1052 1 3.17042045876522813e+01
1053 1 3.08064363761642426e+01
1054 1 1.56786547399859337e+01
1055 1 3.34231732159917385e+01
1056 1 3.41863585446486127e+01
1057 1 3.58977046990806485e+01
1058 1 2.83889346383501397e+01
1059 1 3.56062622702308573e+01
1060 1 3.22834718507023553e+01
1061 1 3.09396911669383421e+01
1062 1 2.62595969480592899e+01
1063 1 2.89912220090263588e+01
1064 1 3.33140759862613720e+01
1065 1 2.93303204114576808e+01
1066 1 3.20834011912585382e+01
1067 1 3.03885227931379838e+01
1068 1 3.00122958531580686e+01
1069 1 3.59557764423216284e+01
1070 1 3.20254038995133570e+01
1071 1 3.02513898456831818e+01
1072 1 1.47192078725069653e+01
1073 1 1.40975422574258769e+01
1074 1 2.86435593759338474e+01
1075 1 2.71979060571201359e+01
1076 1 2.47755795492042417e+01
1077 1 2.58293042675469948e+01
1078 1 2.41910659895862956e+01
1079 1 1.28108602208332236e+01
1080 1 1.33194609670663127e+01
1081 1 2.25485515431195154e+01
1082 1 2.71778720035567751e+01
1083 1 2.61245575482467913e+01
1084 1 2.50647316485898521e+01
1085 1 2.42208123082073357e+01
1086 1 3.39767727256058976e+01
1087 1 1.23484413079049578e+01
1088 1 2.77457739115287829e+01
1089 1 1.25552466072609992e+01
1090 1 1.45435630323219200e+01
1091 1 1.28363348041266612e+01
1092 1 1.37035182863958642e+01
1093 1 1.27829717960955396e+01
1094 1 1.34869515009090062e+01
1095 1 1.90487400227455836e+01
1096 1 1.89963072774612662e+01
1097 1 1.86788600054545846e+01
1098 1 1.64932120789508261e+01
1099 1 1.75311718948343973e+01
1100 1 1.55030422614786279e+01
1101 1 1.55481398822365673e+01
1102 1 1.83246063531154810e+01
1103 1 1.85686586228890889e+01
1104 1 1.88873112633756328e+01
1105 1 1.85874654626351017e+01
1106 1 1.20078132850241825e+01
1107 1 1.14689304007107431e+01
1108 1 3.39808272067767403e+00
1109 1 3.60821982714096601e+00
1110 1 4.54225666246179038e+00
1111 1 1.82963539400928745e+01
1112 1 1.77852593061542343e+01
1113 1 3.07788216084429820e+01
1114 1 3.00301906891281583e+01
1115 1 1.95126279571537147e+01
1116 1 1.83732807500298847e+01
1117 1 1.76158625941071882e+01
1118 1 1.70954500593168497e+01
1119 1 1.68581263409198563e+01
1120 1 3.02661564456794423e+01
1121 1 1.74181751662681137e+01
1122 1 1.84107715707077482e+01
1123 1 2.93928487124001556e+01
1124 1 1.25048904394963802e+01
1125 1 3.18696963532404283e+01
1126 1 1.67916597232225016e+01
1127 1 1.94794958642323692e+01
1128 1 3.24985168554568062e+01
1129 1 3.47065602850227819e+01
1130 1 3.30821019906748006e+01
1131 1 3.72227950965582650e+01
1132 1 2.98764043118400799e+01
1133 1 2.84701645858417329e+01
1134 1 3.56816505513642284e+01
1135 1 2.68134820803861871e+01
1136 1 3.06820815845338579e+01
1137 1 2.98615257096829545e+01
1138 1 3.09376585377562527e+01
1139 1 3.10078859110317708e+01
1140 1 2.72236437897635781e+01
1141 1 2.84451643168513684e+01
1142 1 2.80287418779513580e+01
1143 1 3.17455478114745375e+01
1144 1 2.99554774801209120e+01
1145 1 3.19593926044874941e+01
1146 1 3.66094796983964130e+01
1147 1 2.90662756953373389e+01
1148 1 3.87139293308348655e+01
1149 1 2.88638606717020529e+01
1150 1 3.02852011841226307e+01
1151 1 1.43661101549238666e+01
1152 1 1.59925890759483291e+01
1153 1 2.81402625822979395e+01
1154 1 2.48906804718631705e+01
1155 1 2.59013740617538950e+01
1156 1 2.44661436984733243e+01
1157 1 1.31293329643591026e+01
1158 1 2.18476048029356598e+01
1159 1 2.50498667645541069e+01
1160 1 2.71518652829177931e+01
1161 1 2.56164813475702857e+01
1162 1 2.48946958376463634e+01
1163 1 2.43927545008296249e+01
1164 1 1.20807472402805978e+01
1165 1 3.38123079241531386e+01
1166 1 1.18499252769870083e+01
1167 1 2.82462681329141745e+01
1168 1 1.19596484928968323e+01
1169 1 1.23124421546844385e+01
1170 1 1.28889667332471110e+01
1171 1 1.16226812700568498e+01
1172 1 1.22291108900362175e+01
1173 1 1.66548467366121429e+01
1174 1 1.89438230482629812e+01
1175 1 1.88130296525275149e+01
1176 1 1.78285390005937074e+01
1177 1 1.83316102073199900e+01
1178 1 1.62690474754278007e+01
1179 1 1.57440697476583580e+01
1180 1 1.74379604144287974e+01
1181 1 1.81051059168872293e+01
1182 1 1.85561599810999525e+01
1183 1 1.33216041455255230e+01
1184 1 1.21925101113046672e+01
1185 1 1.51938538023687357e+01
1186 1 1.65845926732695084e+01
1187 1 6.33948007355780163e+00
1188 1 4.56961846430023755e+00
1189 1 5.31998380912011459e+00
1190 1 5.65376787785314505e+00
1191 1 2.01136296389399156e+01
1192 1 3.19412000223916834e+01
1193 1 1.88266080801148057e+01
1194 1 3.15968407088801726e+01
1195 1 3.40962411082832091e+01
1196 1 3.73569600882989548e+01
1197 1 2.98637638838378656e+01
1198 1 3.05415341974622905e+01
1199 1 2.91626631781688204e+01
1200 1 3.56011198301155929e+01
1201 1 2.69717780145222399e+01
1202 1 3.03988949714306074e+01
1203 1 1.42746132873903662e+01
1204 1 3.03956018797542704e+01
1205 1 2.88956103342057418e+01
1206 1 2.94092861527964118e+01
1207 1 3.87599153542895749e+01
1208 1 3.11000870953683268e+01
1209 1 3.05369915282924254e+01
1210 1 2.81358067956999385e+01
1211 1 2.98660874117964035e+01
1212 1 3.43966408664310705e+01
1213 1 2.93238249565143079e+01
1214 1 2.89505813919421762e+01
1215 1 2.92341772472492423e+01
1216 1 2.98801930991767506e+01
1217 1 3.17186206431705848e+01
1218 1 1.17634885018849822e+01
1219 1 3.79347140025361469e+01
1220 1 3.70050631226425537e+01
1221 1 3.19507223748398275e+01
1222 1 4.02934311062188755e+01
1223 1 2.69041084527659500e+01
1224 1 2.72502794496729841e+01
1225 1 1.63512302658752340e+01
1226 1 1.54728884169767387e+01
1227 1 1.45503069170787072e+01
1228 1 2.05585437246082705e+01
1229 1 1.82272955133261334e+01
1230 1 2.75376847877137401e+01
1231 1 2.46285544013320568e+01
1232 1 2.60099677593745469e+01
1233 1 2.51651256977695716e+01
1234 1 2.42150296952978117e+01
1235 1 1.31394620741006900e+01
1236 1 2.32020290287982007e+01
1237 1 2.60161611408135229e+01
1238 1 2.53459847297420353e+01
1239 1 2.43341755702374272e+01
1240 1 1.24402407627350549e+01
1241 1 3.43590352116424924e+01
1242 1 1.15746690122020190e+01
1243 1 2.93965217190398462e+01
1244 1 2.95104046781560712e+01
1245 1 1.19522248001402449e+01
1246 1 1.17924307437453972e+01
1247 1 1.16316233570138241e+01
1248 1 1.16129623248005487e+01
1249 1 1.85341637119912974e+01
1250 1 1.75065990882826412e+01
1251 1 2.08953214172097965e+01
1252 1 1.87773340496691716e+01
1253 1 1.80030710701286161e+01
1254 1 1.70897463993901120e+01
1255 1 1.90140870718634041e+01
1256 1 1.16433340254029982e+01
1257 1 1.31962030251440492e+01
1258 1 1.57097340096823963e+01
1259 1 1.63913355285100764e+01
1260 1 1.75977322049210336e+01
1261 1 1.83124933541905577e+01
1262 1 1.36252003904074783e+01
1263 1 1.26864804708013619e+01
1264 1 1.62042491229781902e+01
1265 1 1.83000681910716700e+01
1266 1 8.95413556824859747e+00
1267 1 1.18479623216786365e+01
1268 1 1.11762289839685138e+01
1269 1 6.95369849057869960e+00
1270 1 6.21314251276858975e+00
1271 1 6.70746232020652844e+00
1272 1 2.16877243263283788e+01
1273 1 2.01353674835908834e+01
1274 1 2.87306878108022090e+01
1275 1 2.89110778732638067e+01
1276 1 3.07177205606568329e+01
1277 1 3.97040413298747836e+01
1278 1 3.00123999421587477e+01
1279 1 2.96388537996578769e+01
1280 1 3.46991012230895493e+01
1281 1 2.96576265146971600e+01
1282 1 3.00898570316165603e+01
1283 1 2.68997023490668532e+01
1284 1 2.73556503077447388e+01
1285 1 2.59527439807302720e+01
1286 1 2.88014258769262845e+01
1287 1 2.94595614728198036e+01
1288 1 2.99712477655670924e+01
1289 1 2.98304717802488533e+01
1290 1 1.19060612614019181e+01
1291 1 1.23236658600328326e+01
1292 1 3.83130476765049863e+01
1293 1 4.04022406572862991e+01
1294 1 3.49945234195418493e+01
1295 1 3.12770412100510669e+01
1296 1 3.80315949719089588e+01
1297 1 3.27716404059957611e+01
1298 1 4.14057880026878138e+01
1299 1 2.46753201697421609e+01
1300 1 2.48283790926275429e+01
1301 1 2.41876708598082963e+01
1302 1 1.70230152097435941e+01
1303 1 1.54499131749816883e+01
1304 1 2.19793629698812722e+01
1305 1 2.03619637644599791e+01
1306 1 1.91411116951992994e+01
1307 1 3.15376653052622480e+01
1308 1 2.37267633885734703e+01
1309 1 2.64925385418137402e+01
1310 1 2.48361630058423124e+01
1311 1 1.39349304193691879e+01
1312 1 2.40558143562581783e+01
1313 1 2.36324793186866593e+01
1314 1 2.30676962829407977e+01
1315 1 1.33487578801491527e+01
1316 1 3.55501022360324939e+01
1317 1 1.19278291228648854e+01
1318 1 3.11191920251770995e+01
1319 1 1.21121519436727105e+01
1320 1 1.18806528269254166e+01
1321 1 1.19680721534376300e+01
1322 1 1.20339329152506647e+01
1323 1 2.64765316429420068e+01
1324 1 2.36963234328396268e+01
1325 1 2.32598343828110679e+01
1326 1 2.04541640171837891e+01
1327 1 1.88440284247860639e+01
1328 1 1.89385660845598380e+01
1329 1 2.05915979419279438e+01
1330 1 2.19156815295058465e+01
1331 1 2.04644763680533721e+01
1332 1 1.35620625600143807e+01
1333 1 1.51709172544387432e+01
1334 1 1.83686006064298368e+01
1335 1 1.70150718810107975e+01
1336 1 1.41653089242987384e+01
1337 1 1.49893369194388271e+01
1338 1 1.36346576319354789e+01
1339 1 1.75565127649191375e+01
1340 1 2.01472904072551486e+01
1341 1 1.30617067980278669e+01
1342 1 1.13889528429480844e+01
1343 1 8.61459389834194411e+00
1344 1 1.00849975489682890e+01
1345 1 8.18221009984417691e+00
1346 1 7.95540858991010769e+00
1347 1 2.30733138895231811e+01
1348 1 2.22274192999591769e+01
1349 1 2.19788801238742302e+01
1350 1 1.89081240890627100e+01
1351 1 3.21193319874595176e+01
1352 1 2.59882393073324955e+01
1353 1 3.89259365780362074e+01
1354 1 2.79684608595733479e+01
1355 1 2.98183282251484414e+01
1356 1 2.73856402946052846e+01
1357 1 2.31461950377106156e+01
1358 1 2.21852449223163752e+01
1359 1 1.27274571170963231e+01
1360 1 3.88397830322472970e+01
1361 1 4.13127787709718461e+01
1362 1 4.05632884391715791e+01
1363 1 3.26941447762616235e+01
1364 1 3.47558436414574885e+01
1365 1 4.05957265675069436e+01
1366 1 2.24228912166285568e+01
1367 1 2.23259707509282777e+01
1368 1 2.18281125775162792e+01
1369 1 1.66140483470104314e+01
1370 1 1.83332293863837528e+01
1371 1 2.25637597381793178e+01
1372 1 2.08993207658022762e+01
1373 1 1.47370320726000763e+01
1374 1 2.81735042260666226e+01
1375 1 2.42765531167575723e+01
1376 1 1.61091169273267170e+01
1377 1 2.49008095885755019e+01
1378 1 2.97149968433987262e+01
1379 1 3.21215709832461158e+01
1380 1 2.12203069668894884e+01
1381 1 1.42909489626865049e+01
1382 1 3.73896882438150584e+01
1383 1 3.35141174594176903e+01
1384 1 1.29024197898557222e+01
1385 1 3.29690013983792625e+01
1386 1 3.32671448804773107e+01
1387 1 3.20764185427871737e+01
1388 1 1.32012218834729538e+01
1389 1 1.30896871371641019e+01
1390 1 1.33225797310558427e+01
1391 1 2.92486148493128724e+01
1392 1 2.67355475387773573e+01
1393 1 2.48945327606983433e+01
1394 1 1.92902643740655861e+01
1395 1 1.87563210367806015e+01
1396 1 2.02688977815625826e+01
1397 1 2.28735681196751166e+01
1398 1 1.57269426013605607e+01
1399 1 1.75449834907493845e+01
1400 1 1.71977628121020700e+01
1401 1 1.67008626698418965e+01
1402 1 1.46991405366610977e+01
1403 1 1.54745652762998720e+01
1404 1 1.81752839851453700e+01
1405 1 2.13424439582485483e+01
1406 1 1.27989859749200932e+01
1407 1 1.51425291087805771e+01
1408 1 1.18465864329218125e+01
1409 1 1.06878376633410035e+01
1410 1 1.45815043784986642e+01
1411 1 9.82338662834417597e+00
1412 1 9.94300621037844756e+00
1413 1 9.92343105295408634e+00
1414 1 2.41908147563081464e+01
1415 1 2.36249135188402946e+01
1416 1 2.34464783346632757e+01
1417 1 2.78150098149677980e+01
1418 1 3.02242097862071368e+01
1419 1 2.80216601244259458e+01
1420 1 3.75707850432820010e+01
1421 1 2.97288344713993808e+01
1422 1 2.50804294092833580e+01
1423 1 1.38155213172942961e+01
1424 1 2.25584120829485819e+01
1425 1 2.11960382901857578e+01
1426 1 3.40703802051928051e+01
1427 1 1.38502506502319260e+01
1428 1 3.98042787641097959e+01
1429 1 4.06807643870815525e+01
1430 1 3.53613760518147586e+01
1431 1 3.87118042846606016e+01
1432 1 2.03148707098133912e+01
1433 1 1.99607833022423478e+01
1434 1 1.98165363880013281e+01
1435 1 1.96288493184801389e+01
1436 1 2.01266451478802004e+01
1437 1 2.40053246386918566e+01
1438 1 2.29125382406134541e+01
1439 1 1.55546432706229556e+01
1440 1 1.65575275787684433e+01
1441 1 2.40558128221138077e+01
1442 1 2.28323139641685380e+01
1443 1 1.98532368823611591e+01
1444 1 1.81258175919682181e+01
1445 1 2.77395210424310221e+01
1446 1 3.22908696774013180e+01
1447 1 2.56786997999944617e+01
1448 1 2.82242521368219954e+01
1449 1 2.87056920009529613e+01
1450 1 1.76555413779404127e+01
1451 1 1.94337774088104638e+01
1452 1 3.37849271570775684e+01
1453 1 1.50177163693546998e+01
1454 1 1.62709728539997691e+01
1455 1 1.66476467110302551e+01
1456 1 3.62742051572632320e+01
1457 1 3.82670725879227618e+01
1458 1 2.89863528021246566e+01
1459 1 1.49102725455522176e+01
1460 1 3.50094263885931198e+01
1461 1 3.51763603499371698e+01
1462 1 3.50567252631261184e+01
1463 1 3.61074266402879616e+01
1464 1 1.49155665337630712e+01
1465 1 1.43199765161368120e+01
1466 1 1.46850479069509241e+01
1467 1 3.02718441399148013e+01
1468 1 3.25310889530562761e+01
1469 1 2.95713480956432555e+01
1470 1 2.65852160133782682e+01
1471 1 2.03250851174176042e+01
1472 1 1.90216141323402503e+01
1473 1 2.27619113173082965e+01
1474 1 1.79908302006632468e+01
1475 1 1.97774824764500785e+01
1476 1 1.97748948217523051e+01
1477 1 1.61334598772111271e+01
1478 1 2.34399545758748857e+01
1479 1 1.88568001827553395e+01
1480 1 2.11073541389083381e+01
1481 1 1.79671802322717440e+01
1482 1 1.35467824851929723e+01
1483 1 1.54444974311162859e+01
1484 1 1.19628788697660600e+01
1485 1 1.34814634506986994e+01
1486 1 1.54556326577101881e+01
1487 1 1.17553550168504923e+01
1488 1 1.14322462782941017e+01
1489 1 1.28595485922619979e+01
1490 1 2.49763176470207497e+01
1491 1 2.46143690993834667e+01
1492 1 2.56618991819179243e+01
1493 1 2.47895321520959122e+01
1494 1 2.50707272528351517e+01
1495 1 2.61893239110844931e+01
1496 1 2.12060616775598163e+01
1497 1 3.56861678256502231e+01
1498 1 1.55205661881208297e+01
1499 1 3.91980353101453218e+01
1500 1 3.38151306784369297e+01
1501 1 3.92884993074717954e+01
1502 1 3.96419862402932210e+01
1503 1 3.75193836698131946e+01
1504 1 2.29414927104384212e+01
1505 1 1.84337651521557149e+01
1506 1 1.76647005821718039e+01
1507 1 2.34623614952880430e+01
1508 1 2.31755758102072669e+01
1509 1 2.61005073277251114e+01
1510 1 2.51666870329554122e+01
1511 1 1.80091220076450824e+01
1512 1 2.01899253943497783e+01
1513 1 2.00298178628924326e+01
1514 1 2.32124702550816195e+01
1515 1 2.22909534404111298e+01
1516 1 2.05216409538106497e+01
1517 1 2.36293928801777859e+01
1518 1 2.19822504845726598e+01
1519 1 2.96932410450525026e+01
1520 1 3.15476959637299537e+01
1521 1 3.68304168262608513e+01
1522 1 3.46660594588415378e+01
1523 1 1.58517285451641019e+01
1524 1 2.44834681800348370e+01
1525 1 2.52831822152405969e+01
1526 1 1.59526577365661133e+01
1527 1 1.72419380064417922e+01
1528 1 3.10990418293190700e+01
1529 1 1.76334859688364887e+01
1530 1 1.72753666707023257e+01
1531 1 1.91631857998471880e+01
1532 1 2.64320083783330020e+01
1533 1 2.78708220519433176e+01
1534 1 3.40786219599541695e+01
1535 1 3.69540357420425636e+01
1536 1 3.85106174598390680e+01
1537 1 2.54143019668899477e+01
1538 1 1.70280236056984329e+01
1539 1 3.65459035775800700e+01
1540 1 3.73603110617086287e+01
1541 1 3.75658986056574236e+01
1542 1 3.87074237435968911e+01
1543 1 4.03620432981735675e+01
1544 1 1.68760619546944923e+01
1545 1 1.60288128174042157e+01
1546 1 3.37675870500996993e+01
1547 1 3.60106611830504164e+01
1548 1 3.39538576616428145e+01
1549 1 3.13124781443293223e+01
1550 1 2.96967493354891126e+01
1551 1 2.55279278425410219e+01
1552 1 2.14645178886418861e+01
1553 1 2.45658675800938049e+01
1554 1 2.72918238212868047e+01
1555 1 2.43697620011552338e+01
1556 1 1.88193767832895098e+01
1557 1 2.39465981715703329e+01
1558 1 2.22117530889278747e+01
1559 1 2.54546272616449762e+01
1560 1 1.71103580994540927e+01
1561 1 1.87064273847032432e+01
1562 1 1.63205064907905424e+01
1563 1 2.10450707117503661e+01
1564 1 2.26525495887695030e+01
1565 1 1.39907577188866163e+01
1566 1 1.44310038547256028e+01
1567 1 1.34798525896705659e+01
1568 1 1.49446944496327596e+01
1569 1 1.43511244938398264e+01
1570 1 1.76828984437975514e+01
1571 1 2.05791940953418084e+01
1572 1 2.60400655987599627e+01
1573 1 2.55165206185282365e+01
1574 1 2.58395054962180595e+01
1575 1 2.64213581203015373e+01
1576 1 2.65354719187097281e+01
1577 1 3.87527405917776804e+01
1578 1 2.57862792760621353e+01
1579 1 1.69980397134698045e+01
1580 1 2.67770237763577654e+01
1581 1 2.68570501244266993e+01
1582 1 2.84748227400322342e+01
1583 1 2.15049187390933447e+01
1584 1 1.76300537475973584e+01
1585 1 2.47396308933222926e+01
1586 1 2.13769651982513160e+01
1587 1 2.08949534676029529e+01
1588 1 1.90070468549936002e+01
1589 1 2.51025122943711665e+01
1590 1 2.71959172987832716e+01
1591 1 2.63950868819177913e+01
1592 1 3.25167012589303113e+01
1593 1 3.61172553587635647e+01
1594 1 1.87504567407673655e+01
1595 1 2.01477402192576740e+01
1596 1 1.57316007542585652e+01
1597 1 1.59459938636662635e+01
1598 1 2.14030253701404867e+01
1599 1 1.61381398497846398e+01
1600 1 2.54875053916550058e+01
1601 1 3.05561653830569568e+01
1602 1 2.05982496606002528e+01
1603 1 2.41066494165416998e+01
1604 1 3.77712167760418609e+01
1605 1 4.04316164755915253e+01
1606 1 2.68603445762126398e+01
1607 1 2.49525411972276672e+01
1608 1 2.47666073902135793e+01
1609 1 2.50694982817469310e+01
1610 1 3.84587629442332926e+01
1611 1 3.36702899431178295e+01
1612 1 3.57521499300818562e+01
1613 1 3.76496211945239665e+01
1614 1 2.45366508087646658e+01
1615 1 4.23502561464565304e+01
1616 1 1.96218502967599484e+01
1617 1 3.89675075371800403e+01
1618 1 4.04656959551901849e+01
1619 1 4.16176951204973165e+01
1620 1 4.32796937866446285e+01
1621 1 2.00025571038478525e+01
1622 1 3.93948667511408743e+01
1623 1 3.80031033603031574e+01
1624 1 4.11635772303479257e+01
1625 1 3.61662828815809547e+01
1626 1 2.93031301127359995e+01
1627 1 2.99534249607116330e+01
1628 1 3.11930779424050257e+01
1629 1 3.24444214972796132e+01
1630 1 2.93638147603326871e+01
1631 1 2.69448443601371146e+01
1632 1 2.62892219926950084e+01
1633 1 2.66223171914586239e+01
1634 1 2.62023374965273774e+01
1635 1 2.34173155338449810e+01
1636 1 2.31297278890740614e+01
1637 1 2.50633425065848812e+01
1638 1 2.46722422331485767e+01
1639 1 2.54173517940041158e+01
1640 1 1.90931693957945718e+01
1641 1 1.78794118013871390e+01
1642 1 2.33248552829413924e+01
1643 1 1.65788809041768346e+01
1644 1 1.64057592756121231e+01
1645 1 2.11091178307575866e+01
1646 1 2.63727236238496054e+01
1647 1 2.67595284188440488e+01
1648 1 2.66731274817480433e+01
1649 1 2.66963354451247028e+01
1650 1 3.09184586665349137e+01
1651 1 2.96925969056469192e+01
1652 1 2.66909455874840660e+01
1653 1 3.27884346967309952e+01
1654 1 1.73679956992763032e+01
1655 1 2.88192569831803915e+01
1656 1 1.89900429559217336e+01
1657 1 2.84762359041917534e+01
1658 1 3.02550288825617457e+01
1659 1 3.30306309760154662e+01
1660 1 2.26713362655349471e+01
1661 1 2.16907011471707705e+01
1662 1 2.07238888728400532e+01
1663 1 1.63054967919176832e+01
1664 1 1.72167249581177551e+01
1665 1 2.52649910689933037e+01
1666 1 2.36013464292226338e+01
1667 1 2.92983374994257133e+01
1668 1 2.73072757879654802e+01
1669 1 3.22391181106428633e+01
1670 1 2.59073083679617966e+01
1671 1 3.11068359315265468e+01
1672 1 2.96426633774576445e+01
1673 1 3.66411886476573372e+01
1674 1 4.05283760380752724e+01
1675 1 2.53399315700377485e+01
1676 1 2.36338896987639764e+01
1677 1 2.25374630539479739e+01
1678 1 2.32563768991984468e+01
1679 1 3.79974541143935411e+01
1680 1 3.51890264553025176e+01
1681 1 2.20548905701033746e+01
1682 1 2.52778974092505102e+01
1683 1 4.41568297427218539e+01
1684 1 4.37892415643767592e+01
1685 1 4.50151716280302239e+01
1686 1 2.21200538198463157e+01
1687 1 4.51547591693029773e+01
1688 1 4.04842645951819762e+01
1689 1 4.31071151053956072e+01
1690 1 2.15297132335351371e+01
1691 1 4.28694062156752480e+01
1692 1 4.33473487404254598e+01
1693 1 4.10271262034227675e+01
1694 1 3.60918758815058567e+01
1695 1 3.83034059798212212e+01
1696 1 3.44186106189168726e+01
1697 1 3.38997495819095107e+01
1698 1 3.13555786020428009e+01
1699 1 3.28374924372826626e+01
1700 1 2.86283641260176438e+01
1701 1 3.00065610798523181e+01
1702 1 2.91170630131778303e+01
1703 1 2.71631460334048924e+01
1704 1 2.71659850571415298e+01
1705 1 2.70973360713928564e+01
1706 1 2.61026360716159616e+01
1707 1 2.64908848254012703e+01
1708 1 2.53969471064298098e+01
1709 1 2.13310374701879049e+01
1710 1 2.25785351599120041e+01
1711 1 2.14162591926712622e+01
1712 1 2.75917104405896865e+01
1713 1 2.76129229620819991e+01
1714 1 2.70957396367171697e+01
1715 1 2.73554752943979373e+01
1716 1 2.68434659934995707e+01
1717 1 2.66563278791247846e+01
1718 1 2.63240835607779289e+01
1719 1 2.48875486558010692e+01
1720 1 2.49428822586130714e+01
1721 1 4.47466055116507704e+01
1722 1 3.07828445753433542e+01
1723 1 1.90600069979060152e+01
1724 1 1.72346644010129069e+01
1725 1 1.89171297047197342e+01
1726 1 2.16095523078894196e+01
1727 1 2.32513685501772862e+01
1728 1 2.35393137289559995e+01
1729 1 2.35432349440291731e+01
1730 1 2.59726284632513185e+01
1731 1 2.82690463428796619e+01
1732 1 3.28322301657063207e+01
1733 1 2.78453877801791982e+01
1734 1 3.15264161314478102e+01
1735 1 2.72002485202417361e+01
1736 1 3.55625270810617806e+01
1737 1 4.03380804955358911e+01
1738 1 4.35483236693124027e+01
1739 1 3.37971693245240274e+01
1740 1 2.37629797803576182e+01
1741 1 2.16213514705650311e+01
1742 1 2.03562107372957115e+01
1743 1 2.60424741552303942e+01
1744 1 3.81556314768573301e+01
1745 1 3.54677776182616924e+01
1746 1 2.10245717816332380e+01
1747 1 2.40314537735050813e+01
1748 1 4.62453920718978893e+01
1749 1 4.58560107501165888e+01
1750 1 4.76375179694988020e+01
1751 1 2.36654622478244612e+01
1752 1 4.64678863051104116e+01
1753 1 4.44859887258353908e+01
1754 1 4.14767322386557211e+01
1755 1 2.15078487905227966e+01
1756 1 1.95880326040839456e+01
1757 1 2.02629476779219218e+01
1758 1 1.93440752025205747e+01
1759 1 4.48533867345087884e+01
1760 1 4.44689187602162974e+01
1761 1 4.27896244024553738e+01
1762 1 3.75181150070602740e+01
1763 1 3.98614160045751049e+01
1764 1 3.54964731599375796e+01
1765 1 3.46665110486492694e+01
1766 1 3.11429030786553831e+01
1767 1 3.19380528518430644e+01
1768 1 3.10004955306780694e+01
1769 1 2.89195644102363190e+01
1770 1 2.82073279179600611e+01
1771 1 2.89533332096899905e+01
1772 1 2.82217823094678337e+01
1773 1 2.67302944620247516e+01
1774 1 2.80277946210691944e+01
1775 1 2.73859787173671840e+01
1776 1 2.68144716877428380e+01
1777 1 2.70399846643720956e+01
1778 1 2.65834984359376172e+01
1779 1 2.57189592903562954e+01
1780 1 3.04383995103250307e+01
1781 1 1.83265284566210767e+01
1782 1 1.97645014332340594e+01
1783 1 2.04577300699535307e+01
1784 1 2.13523970479371101e+01
1785 1 2.03874930585895697e+01
1786 1 2.33163347087504853e+01
1787 1 2.24395785566593347e+01
1788 1 2.62758037163125664e+01
1789 1 2.45001021641204844e+01
1790 1 2.86700054634689430e+01
1791 1 3.13733637030120640e+01
1792 1 3.44567326473946309e+01
1793 1 3.07865497754095756e+01
1794 1 3.01537268166226724e+01
1795 1 3.81723995961915108e+01
1796 1 4.18239018783936274e+01
1797 1 4.55048071988255174e+01
1798 1 3.30494264558736006e+01
1799 1 2.26625407074148377e+01
1800 1 2.10616567751671369e+01
1801 1 2.00356254340060147e+01
1802 1 3.08782255248098139e+01
1803 1 2.79499909989237025e+01
1804 1 3.63614547415596832e+01
1805 1 2.31095963969243741e+01
1806 1 2.19359421620434460e+01
1807 1 2.13060521654058057e+01
1808 1 4.97756548535238750e+01
1809 1 4.83013676993773586e+01
1810 1 4.78702485084606408e+01
1811 1 4.92104914787654906e+01
1812 1 2.40108520000219450e+01
1813 1 4.63795443928732283e+01
1814 1 4.37585282363710562e+01
1815 1 3.97150809639544846e+01
1816 1 2.08622508436706759e+01
1817 1 1.92843612005555585e+01
1818 1 1.95079716036649629e+01
1819 1 1.67042141726272391e+01
1820 1 1.63579583645057056e+01
1821 1 1.64565408688761323e+01
1822 1 6.60827907666289960e+00
1823 1 4.56656146054730954e+01
1824 1 4.53806856616422891e+01
1825 1 4.42788210535116207e+01
1826 1 4.29318171235179591e+01
1827 1 3.87642891062288228e+01
1828 1 4.13282226316800916e+01
1829 1 3.74179078330980843e+01
1830 1 3.58707274807284406e+01
1831 1 3.32638361149983197e+01
1832 1 3.18699878061153541e+01
1833 1 2.99063308777019010e+01
1834 1 2.90702386726610662e+01
1835 1 2.84608435218551925e+01
1836 1 2.87586517763239016e+01
1837 1 2.88341549373363861e+01
1838 1 2.92840150312842589e+01
1839 1 2.91296089031548426e+01
1840 1 2.72081030344283725e+01
1841 1 2.59811968701130702e+01
1842 1 2.60459166341972299e+01
1843 1 2.47262768725005344e+01
1844 1 2.13017450668266193e+01
1845 1 1.96708860594192707e+01
1846 1 2.27904807278812775e+01
1847 1 2.25292013548097110e+01
1848 1 2.65345310599497992e+01
1849 1 2.47221570869831879e+01
1850 1 2.84833042845441078e+01
1851 1 3.04722110363265060e+01
1852 1 4.82133478884497890e+01
1853 1 2.24622228137673297e+01
1854 1 3.47798580455052218e+01
1855 1 3.31710796074727128e+01
1856 1 3.46174506417137025e+01
1857 1 3.94368784790572633e+01
1858 1 4.39362333751976948e+01
1859 1 2.44449006224317849e+01
1860 1 3.20192152074998830e+01
1861 1 2.18176177514095819e+01
1862 1 2.03944062276663942e+01
1863 1 3.24887691133614496e+01
1864 1 3.48147576605602254e+01
1865 1 2.78247406917016775e+01
1866 1 3.11842372872875018e+01
1867 1 2.18048918274373484e+01
1868 1 3.42602381931255096e+01
1869 1 2.21225705145106382e+01
1870 1 2.20821667215533530e+01
1871 1 2.06753829679583419e+01
1872 1 1.96599913226945979e+01
1873 1 5.06070111513372467e+01
1874 1 5.17715225045917649e+01
1875 1 4.90869218356185826e+01
1876 1 4.76996654979403019e+01
1877 1 2.52422108858199685e+01
1878 1 4.50155111147615443e+01
1879 1 4.16898407704617142e+01
1880 1 3.69196933629515556e+01
1881 1 1.26499516145469251e+01
1882 1 1.30243876448089413e+01
1883 1 1.32050939398778677e+01
1884 1 1.23360420758608260e+01
1885 1 1.83315603186799727e+01
1886 1 1.99914465290093233e+01
1887 1 1.69148837892003847e+01
1888 1 1.72081972635050207e+01
1889 1 1.46107133169901786e+01
1890 1 7.16435489335178843e+00
1891 1 7.28926017895007217e+00
1892 1 6.49106804059864473e+00
1893 1 3.11496775000973827e+01
1894 1 4.59462542050482412e+01
1895 1 4.53993796358226547e+01
1896 1 4.46827973907474600e+01
1897 1 3.78549236302608350e+01
1898 1 4.08039187629674487e+01
1899 1 3.51209917991649476e+01
1900 1 3.42875432721740125e+01
1901 1 2.91296594822796635e+01
1902 1 2.79528292438908501e+01
1903 1 2.72803763225270650e+01
1904 1 2.83388231065047655e+01
1905 1 2.48293696368314869e+01
1906 1 2.46981878329423594e+01
1907 1 2.32215902419929208e+01
1908 1 1.53784666926241300e+01
1909 1 2.20554502284192786e+01
1910 1 1.98299704399464218e+01
1911 1 2.23120360017855717e+01
1912 1 2.70491516502624094e+01
1913 1 2.63866680872638781e+01
1914 1 2.65015671285454850e+01
1915 1 2.83177942723975029e+01
1916 1 2.95250361079726353e+01
1917 1 5.01668532241051821e+01
1918 1 4.69239781455435789e+01
1919 1 2.03429442966365137e+01
1920 1 2.22005059947355754e+01
1921 1 3.11184684026515477e+01
1922 1 3.70012745114192185e+01
1923 1 2.53333801534113512e+01
1924 1 3.73505357302984606e+01
1925 1 4.10172782358364927e+01
1926 1 4.48372364374470109e+01
1927 1 3.86359816166443224e+01
1928 1 3.01799551142727296e+01
1929 1 2.35629798362557956e+01
1930 1 2.92313472591454939e+01
1931 1 2.22051894669105110e+01
1932 1 2.12833299511458733e+01
1933 1 3.38893391953839114e+01
1934 1 3.44118381880907478e+01
1935 1 3.68529672238591886e+01
1936 1 2.83904654275268165e+01
1937 1 3.05092821985305029e+01
1938 1 3.35008146513024698e+01
1939 1 5.27155132766094496e+01
1940 1 5.35709627726464532e+01
1941 1 2.17316543911923041e+01
1942 1 2.15509021912592580e+01
1943 1 3.11114871679832170e+01
1944 1 2.11234129331146256e+01
1945 1 2.13798652703349248e+01
1946 1 1.97117122646834737e+01
1947 1 1.96775910686346762e+01
1948 1 5.11694126448786335e+01
1949 1 4.68958096050343798e+01
1950 1 2.54520646326015481e+01
1951 1 4.09813029848625305e+01
1952 1 3.50846549742970240e+01
1953 1 3.17249325142129095e+01
1954 1 1.19702866822878686e+01
1955 1 1.33921490893254589e+01
1956 1 2.01745607047827775e+01
1957 1 1.91861477866422554e+01
1958 1 1.92519014819358425e+01
1959 1 1.84577311036550391e+01
1960 1 1.52485406034538382e+01
1961 1 1.46560057343899821e+01
1962 1 1.44852344842247689e+01
1963 1 1.46792649391265382e+01
1964 1 7.50131510184023043e+00
1965 1 5.94504414693033478e+00
1966 1 2.82822793851256087e+01
1967 1 3.01389580552654373e+01
1968 1 3.26338507508451059e+01
1969 1 4.32660121966063471e+01
1970 1 4.50981208785582623e+01
1971 1 4.46899951975579270e+01
1972 1 4.29854155323204239e+01
1973 1 3.84979588594501436e+01
1974 1 3.65211818148597231e+01
1975 1 2.64412583161696872e+01
1976 1 2.45938443493230707e+01
1977 1 2.72251693703783744e+01
1978 1 2.48351604152611820e+01
1979 1 2.23872965125147978e+01
1980 1 2.13590166726568285e+01
1981 1 2.13592590856435578e+01
1982 1 2.28062997868975827e+01
1983 1 1.62978427259981586e+01
1984 1 1.84755783222659637e+01
1985 1 1.61171945533666516e+01
1986 1 1.53304531491912233e+01
1987 1 2.73011326809962220e+01
1988 1 4.90025243572704667e+01
1989 1 2.07707932709234733e+01
1990 1 2.38826378532959218e+01
1991 1 2.84846506588618347e+01
1992 1 3.95505056000336808e+01
1993 1 2.52943476897658464e+01
1994 1 4.10316358029172150e+01
1995 1 4.28170463613681349e+01
1996 1 4.66161024438094458e+01
1997 1 5.22143264841598622e+01
1998 1 4.33015659608876575e+01
1999 1 4.05217787935649554e+01
2000 1 2.71246960898875642e+01
2001 1 2.42063121827710042e+01
2002 1 2.66058596041458060e+01
2003 1 5.01047805088175338e+01
2004 1 4.43508744462110229e+01
2005 1 2.30186412110459813e+01
2006 1 2.17380330456361115e+01
2007 1 3.78621050081435087e+01
2008 1 3.70367978926299131e+01
2009 1 4.09609592291106281e+01
2010 1 2.07195927444317185e+01
2011 1 2.89341715614020600e+01
2012 1 3.54822268254476612e+01
2013 1 3.21195962486178672e+01
2014 1 5.28710229029897860e+01
2015 1 5.40664700415298753e+01
2016 1 5.37827412384874961e+01
2017 1 5.31766055643538564e+01
2018 1 2.13067114017139723e+01
2019 1 2.09008187556649574e+01
2020 1 2.72160024745061655e+01
2021 1 2.01745735698976993e+01
2022 1 2.03018735499355998e+01
2023 1 1.93150959609395656e+01
2024 1 1.97133130514749801e+01
2025 1 4.11927596505818201e+01
2026 1 5.00266850018582829e+01
2027 1 4.75741553154930443e+01
2028 1 2.72777053015696858e+01
2029 1 3.61131631653411773e+01
2030 1 2.97646072083625022e+01
2031 1 1.43569888444878000e+01
2032 1 1.16478209595155562e+01
2033 1 1.39082518552530772e+01
2034 1 2.26264841642644967e+01
2035 1 1.91844682840524108e+01
2036 1 1.95977298282793697e+01
2037 1 1.99130849687374827e+01
2038 1 1.96163235124979494e+01
2039 1 8.88750375015269611e+00
2040 1 1.56904718370991301e+01
2041 1 1.63101364712605346e+01
2042 1 1.30426277984344097e+01
2043 1 1.47864096109046219e+01
2044 1 1.36490823251046827e+01
2045 1 5.72935677229900442e+00
2046 1 9.01979431877737348e+00
2047 1 6.45328136704316790e+00
2048 1 2.64165823941208160e+01
2049 1 2.94146060732981383e+01
2050 1 2.76746742209544188e+01
2051 1 3.12890619637644427e+01
2052 1 3.36723379341878157e+01
2053 1 4.27520954406087554e+01
2054 1 3.96143260727981357e+01
2055 1 4.16352244052325560e+01
2056 1 4.30153529502902572e+01
2057 1 4.05173625532961097e+01
2058 1 3.74480689917257479e+01
2059 1 1.59862545179141442e+01
2060 1 1.71982763243214265e+01
2061 1 1.65081900843889429e+01
2062 1 1.97569822477621670e+01
2063 1 2.21876771628899121e+01
2064 1 2.45096541135606039e+01
2065 1 1.64309606974398683e+01
2066 1 1.78885550877891042e+01
2067 1 2.00596750937102968e+01
2068 1 1.84165970235074781e+01
2069 1 1.77351269519995149e+01
2070 1 1.92488834494075327e+01
2071 1 1.68108186048540951e+01
2072 1 1.53162491077811200e+01
2073 1 1.65001814933811595e+01
2074 1 1.55700401259688359e+01
2075 1 1.62498856529668068e+01
2076 1 1.66317220259250789e+01
2077 1 1.65732361933580208e+01
2078 1 1.73630845162212744e+01
2079 1 1.69396798961472896e+01
2080 1 1.71425437399949736e+01
2081 1 1.47086557864907821e+01
2082 1 1.62013493180285302e+01
2083 1 1.55005460332674883e+01
2084 1 1.54480521301350109e+01
2085 1 1.79316179038334376e+01
2086 1 2.46913715418213648e+01
2087 1 4.76105034604161474e+01
2088 1 4.53679379623444632e+01
2089 1 5.15108309619666471e+01
2090 1 4.42248701371309210e+01
2091 1 2.50158728659145098e+01
2092 1 5.02299993065544825e+01
2093 1 4.42738473394146652e+01
2094 1 2.24237807720589082e+01
2095 1 2.46225311779256231e+01
2096 1 2.50107195404304150e+01
2097 1 3.83823151038418757e+01
2098 1 4.90490171070045093e+01
2099 1 4.12673886120535869e+01
2100 1 4.26548266242215917e+01
2101 1 4.65253560494774021e+01
2102 1 4.26045946462747196e+01
2103 1 3.79361240840748692e+01
2104 1 2.08425920939740585e+01
2105 1 3.11688800219958431e+01
2106 1 3.58742468087507049e+01
2107 1 3.38713459990036014e+01
2108 1 5.25558777364483234e+01
2109 1 5.18255914000255018e+01
2110 1 5.06484234623910226e+01
2111 1 2.05616373475582392e+01
2112 1 2.00695458720737250e+01
2113 1 2.59640057009626375e+01
2114 1 1.93846360212065640e+01
2115 1 1.92400559717637556e+01
2116 1 1.94737095400083753e+01
2117 1 1.90934529724919138e+01
2118 1 4.09243191720147479e+01
2119 1 3.87183560186588807e+01
2120 1 3.50206084820099832e+01
2121 1 4.88995206845202333e+01
2122 1 4.74213042422347826e+01
2123 1 4.56662909885810748e+01
2124 1 3.00607147031151634e+01
2125 1 2.65258602128184826e+01
2126 1 3.12563809398467534e+01
2127 1 2.62358083436431819e+01
2128 1 2.81170568795407405e+01
2129 1 7.28620206854561481e+00
2130 1 1.57324000061201925e+01
2131 1 1.76886011177065825e+01
2132 1 1.89989446715143551e+01
2133 1 2.20727021294976993e+01
2134 1 9.91984629327638245e+00
2135 1 1.19498472899865344e+01
2136 1 1.58333121642448624e+01
2137 1 1.44242636671062918e+01
2138 1 1.04036187105702123e+01
2139 1 1.18066570483804263e+01
2140 1 9.62587982804514475e+00
2141 1 1.33767467848584154e+01
2142 1 5.26145251104605016e+00
2143 1 7.67727003833332855e+00
2144 1 6.23084781185625136e+00
2145 1 8.07769250609682210e+00
2146 1 5.93238183943016484e+00
2147 1 5.14884327608179593e+00
2148 1 2.55869364864351283e+01
2149 1 2.96107767274608058e+01
2150 1 3.39901652130369598e+01
2151 1 3.73601752015597555e+01
2152 1 4.00830690422262492e+01
2153 1 3.95384129056465738e+01
2154 1 3.89180424123052333e+01
2155 1 1.89112026106255442e+01
2156 1 1.67356081339032770e+01
2157 1 1.73873521307855015e+01
2158 1 1.78828308310933366e+01
2159 1 1.98715426400340114e+01
2160 1 1.64420519525685158e+01
2161 1 1.52837695134336702e+01
2162 1 1.58136331652083264e+01
2163 1 1.45388405509000656e+01
2164 1 1.50807179799977593e+01
2165 1 1.73054278804248334e+01
2166 1 1.59807172479481263e+01
2167 1 1.68955113697175783e+01
2168 1 1.79820485123881468e+01
2169 1 1.70148211771618811e+01
2170 1 1.76458530921160524e+01
2171 1 1.68458742421643350e+01
2172 1 1.97645852771246240e+01
2173 1 1.42068624444688947e+01
2174 1 1.59044478886682636e+01
2175 1 1.49324184487828937e+01
2176 1 1.50230060570117416e+01
2177 1 1.67707355475719133e+01
2178 1 1.84803392618727358e+01
2179 1 2.01337222989420255e+01
2180 1 2.01991917101270353e+01
2181 1 2.28647417463979714e+01
2182 1 4.40437048321068048e+01
2183 1 2.38148044530735312e+01
2184 1 2.35976458262226600e+01
2185 1 3.97855509684924300e+01
2186 1 4.12028946659747106e+01
2187 1 4.95447183782177660e+01
2188 1 4.30732621904009747e+01
2189 1 4.14739397433605177e+01
2190 1 4.66398056305406143e+01
2191 1 4.48941026552802498e+01
2192 1 4.19689472639633081e+01
2193 1 4.39577079531482724e+01
2194 1 3.95203987643104995e+01
2195 1 2.18818022766824463e+01
2196 1 2.04051349051878006e+01
2197 1 3.40942686700279367e+01
2198 1 3.26820175118266434e+01
2199 1 4.76695752275248807e+01
2200 1 3.67419267529281086e+01
2201 1 4.89126792532942147e+01
2202 1 4.80997000213128416e+01
2203 1 4.80258606505267522e+01
2204 1 3.20834203372766069e+01
2205 1 1.95469334992212254e+01
2206 1 1.91709756557579389e+01
2207 1 2.58826654544378378e+01
2208 1 3.13240307113608338e+01
2209 1 2.32129780157786385e+01
2210 1 1.85047167676501445e+01
2211 1 1.84694570636574085e+01
2212 1 1.90538692248979729e+01
2213 1 1.86641651326823101e+01
2214 1 3.98359401293228004e+01
2215 1 4.11440747209701314e+01
2216 1 3.76403653873468826e+01
2217 1 3.43943888229427657e+01
2218 1 4.47699808298723099e+01
2219 1 2.99405511231264789e+01
2220 1 2.24847099266581054e+01
2221 1 2.76573886739017034e+01
2222 1 2.48394236038191565e+01
2223 1 6.94356114785644873e+00
2224 1 5.60909779722976598e+00
2225 1 8.91649348947945342e+00
2226 1 7.88113049007636590e+00
2227 1 1.21535377043720718e+01
2228 1 1.62726056489890745e+01
2229 1 2.18144616373832783e+01
2230 1 1.79609146318533881e+01
2231 1 1.53450543304242437e+01
2232 1 1.14086089046406283e+01
2233 1 6.90428741683231539e+00
2234 1 6.72138313774023910e+00
2235 1 3.46521465083485296e+01
2236 1 3.18994902269212410e+01
2237 1 2.72476592057876736e+01
2238 1 3.47980408806690988e+01
2239 1 3.60304089992394907e+01
2240 1 3.64221235205059841e+01
2241 1 1.95450768502294814e+01
2242 1 1.96567447125530954e+01
2243 1 2.96639528436075324e+01
2244 1 1.40653418424800005e+01
2245 1 1.45518639463482238e+01
2246 1 1.37839641708244880e+01
2247 1 1.54734480021222964e+01
2248 1 1.69793104618973523e+01
2249 1 1.42677293718576230e+01
2250 1 1.85148027954061831e+01
2251 1 1.85272824678198411e+01
2252 1 1.76518297961343507e+01
2253 1 1.93161239074523436e+01
2254 1 1.49655856721712137e+01
2255 1 1.65519042787776129e+01
2256 1 1.56785409998818412e+01
2257 1 1.73753626345390622e+01
2258 1 1.81039144524225719e+01
2259 1 1.51778530501040141e+01
2260 1 2.01807191345870898e+01
2261 1 1.92865607485194488e+01
2262 1 4.49028305102010492e+01
2263 1 4.27850651241239746e+01
2264 1 4.29900637551952585e+01
2265 1 4.72623744775898444e+01
2266 1 4.27061685405511398e+01
2267 1 4.40711682956672135e+01
2268 1 4.57067617474944043e+01
2269 1 4.20014670408773512e+01
2270 1 4.26915510028495788e+01
2271 1 3.95441144211898674e+01
2272 1 4.21811849153661953e+01
2273 1 4.17422074047331719e+01
2274 1 2.05253998100376549e+01
2275 1 3.49795545990563781e+01
2276 1 1.88615329138770136e+01
2277 1 4.49471959749183725e+01
2278 1 4.42540405534910661e+01
2279 1 4.58703354458562771e+01
2280 1 3.83703468898465587e+01
2281 1 4.51335043746284725e+01
2282 1 4.53910034080996709e+01
2283 1 3.45249178869291384e+01
2284 1 3.29507128825988076e+01
2285 1 1.81157433687610805e+01
2286 1 1.84687210979171823e+01
2287 1 2.80054181064056671e+01
2288 1 3.13914232934287760e+01
2289 1 3.30209094288181575e+01
2290 1 3.16691424726820721e+01
2291 1 2.88648564339937863e+01
2292 1 2.06261987474710722e+01
2293 1 1.83270936681162944e+01
2294 1 1.73272396724908333e+01
2295 1 1.78142877486773621e+01
2296 1 4.22406467250401150e+01
2297 1 4.18967172278705036e+01
2298 1 3.53900574678154456e+01
2299 1 3.95090927544728885e+01
2300 1 4.14293345741761740e+01
2301 1 3.74934683057790892e+01
2302 1 4.27760433537754281e+01
2303 1 3.34650610809588756e+01
2304 1 2.07248336338620938e+01
2305 1 2.55064231401327000e+01
2306 1 2.36717245266939109e+01
2307 1 7.07820172644244039e+00
2308 1 7.40950566212343364e+00
2309 1 9.24584693540482938e+00
2310 1 8.90867876195721031e+00
2311 1 1.01062726582158806e+01
2312 1 9.69188304888554164e+00
2313 1 1.56430580311995691e+01
2314 1 1.26954074905756027e+01
2315 1 1.04448519419153083e+01
2316 1 1.04528958310820421e+01
2317 1 1.88375295043682591e+01
2318 1 2.06680903813795318e+01
2319 1 2.37622355194873194e+01
2320 1 2.69546205464406654e+01
2321 1 9.66566898980207512e+00
2322 1 1.70038277169710703e+01
2323 1 1.47411716332116836e+01
2324 1 1.12723056935291819e+01
2325 1 2.43081064597268721e+01
2326 1 3.16534545780783532e+01
2327 1 3.05465543796261940e+01
2328 1 3.28170667745746911e+01
2329 1 2.08836031200218706e+01
2330 1 1.98876694505604448e+01
2331 1 2.75845079086153646e+01
2332 1 2.77832360007599348e+01
2333 1 2.46238027940080322e+01
2334 1 2.58341675230470855e+01
2335 1 1.40997762707743668e+01
2336 1 1.56054652171070973e+01
2337 1 1.70893342093660046e+01
2338 1 1.56513110493251695e+01
2339 1 1.95315850694260398e+01
2340 1 1.88095271268122275e+01
2341 1 1.85092671494962318e+01
2342 1 1.82533709422846222e+01
2343 1 1.56198855706452360e+01
2344 1 1.59152256286354046e+01
2345 1 1.65147055314084064e+01
2346 1 1.73352831506564407e+01
2347 1 1.60057992571874159e+01
2348 1 1.87228708928945338e+01
2349 1 4.19748781206560082e+01
2350 1 4.15363792607142130e+01
2351 1 4.21807611184135922e+01
2352 1 1.83690007213870921e+01
2353 1 3.70924056225371430e+01
2354 1 2.03359135998937361e+01
2355 1 3.47509850921106889e+01
2356 1 1.83727656170302716e+01
2357 1 3.56626266976559592e+01
2358 1 4.27934091228590319e+01
2359 1 4.32662922478526966e+01
2360 1 4.17467070202193113e+01
2361 1 4.18008946900604954e+01
2362 1 3.99183125265620617e+01
2363 1 3.74896049308117298e+01
2364 1 4.25229056027510310e+01
2365 1 3.64736938551425496e+01
2366 1 1.78563675261412023e+01
2367 1 1.71862512232343860e+01
2368 1 3.15247724378640086e+01
2369 1 3.40159501072532322e+01
2370 1 3.11044064534332030e+01
2371 1 1.60245253495292062e+01
2372 1 3.56042477816880307e+01
2373 1 3.30743189488549802e+01
2374 1 2.87509564459184510e+01
2375 1 2.71217954810412181e+01
2376 1 1.67488089913064115e+01
2377 1 1.59269068538219063e+01
2378 1 2.35152438514807827e+01
2379 1 4.17210004506800942e+01
2380 1 4.32344341353356256e+01
2381 1 3.70111202367026095e+01
2382 1 3.86857452487789999e+01
2383 1 4.36749732415721255e+01
2384 1 4.07261617266259961e+01
2385 1 4.12812115820698224e+01
2386 1 3.77568249129997611e+01
2387 1 1.67181010330853219e+01
2388 1 1.99478644759467372e+01
2389 1 1.12567875255777725e+01
2390 1 9.83247312836837750e+00
2391 1 1.08937917725851978e+01
2392 1 1.07526483164357938e+01
2393 1 1.27055360036417309e+01
2394 1 1.39100381668838935e+01
2395 1 1.18927348305418761e+01
2396 1 1.49825219252802793e+01
2397 1 1.17429310485452731e+01
2398 1 1.15267259739082508e+01
2399 1 1.80861396201413847e+01
2400 1 1.68800575785996188e+01
2401 1 2.13145862061612021e+01
2402 1 2.38145947617980696e+01
2403 1 2.51002296123787296e+01
2404 1 2.40570815479374147e+01
2405 1 2.73098936639643277e+01
2406 1 3.16998169524912541e+01
2407 1 1.17345300523466420e+01
2408 1 1.45286198353844931e+01
2409 1 1.68863549450500088e+01
2410 1 1.36263610969938753e+01
2411 1 1.33629231993756541e+01
2412 1 2.24835167577538861e+01
2413 1 2.52750370178730535e+01
2414 1 2.73553624575016769e+01
2415 1 2.36079165720388922e+01
2416 1 2.37956609319058074e+01
2417 1 2.05286131336694062e+01
2418 1 1.91585699382952868e+01
2419 1 2.51984149417875756e+01
2420 1 2.41765879859350754e+01
2421 1 2.37397140410486074e+01
2422 1 1.66978402629876790e+01
2423 1 1.74621376280220879e+01
2424 1 1.65975878767938170e+01
2425 1 1.89088438323837629e+01
2426 1 1.92445277954729832e+01
2427 1 1.81316795415020273e+01
2428 1 1.81660668885176833e+01
2429 1 1.83606427704340263e+01
2430 1 1.78270167489252813e+01
2431 1 1.62527707852841878e+01
2432 1 1.65748043604936655e+01
2433 1 1.72340967765679238e+01
2434 1 1.66994289458582799e+01
2435 1 1.86884759979805217e+01
2436 1 2.37433443051179509e+01
2437 1 3.76767012949810720e+01
2438 1 4.10915619543405271e+01
2439 1 4.13827483423581555e+01
2440 1 4.13841149733262199e+01
2441 1 3.94082705679602157e+01
2442 1 4.07215386841374141e+01
2443 1 3.90548440444450833e+01
2444 1 1.66726406522152999e+01
2445 1 1.56379751412631123e+01
2446 1 3.60070971986564672e+01
2447 1 3.80434863390751730e+01
2448 1 3.47551730973795969e+01
2449 1 3.17066769548978691e+01
2450 1 1.98322463383056977e+01
2451 1 4.12410846020545847e+01
2452 1 1.35425597055154956e+01
2453 1 4.15013787515054631e+01
2454 1 2.64053983249123867e+01
2455 1 3.97722235243106610e+01
2456 1 3.71852411378581422e+01
2457 1 3.55457815508055717e+01
2458 1 3.81333881038461158e+01
2459 1 2.12692127368788100e+01
2460 1 2.94584438019350507e+01
2461 1 3.06993202265206477e+01
2462 1 1.22140385029025964e+01
2463 1 1.28351236736159926e+01
2464 1 2.37938630869389520e+01
2465 1 4.33062370332805742e+01
2466 1 4.60584317017014442e+01
2467 1 4.01644835521808048e+01
2468 1 4.60277485474276631e+01
2469 1 4.30098520903656123e+01
2470 1 4.09784590409094918e+01
2471 1 4.03392452430832478e+01
2472 1 4.20776655432937545e+01
2473 1 3.73855407115242784e+01
2474 1 1.37798006094471415e+01
2475 1 1.59610333371981756e+01
2476 1 1.35396097214165998e+01
2477 1 1.38358340548571839e+01
2478 1 1.40228757673870508e+01
2479 1 1.31453974021223541e+01
2480 1 1.57494726939052470e+01
2481 1 1.65731373485180171e+01
2482 1 1.35454347165931885e+01
2483 1 1.51538231052143413e+01
2484 1 1.30111636434038047e+01
2485 1 1.38476983439089398e+01
2486 1 2.69513605814682791e+01
2487 1 1.91340781929993717e+01
2488 1 2.39367070201193890e+01
2489 1 2.77618731528437692e+01
2490 1 2.89224988423196265e+01
2491 1 2.91269764926119770e+01
2492 1 3.24894276367571706e+01
2493 1 3.62965466578172808e+01
2494 1 1.46869616032910582e+01
2495 1 1.84189528498346746e+01
2496 1 1.54959616824357820e+01
2497 1 1.69117788371421156e+01
2498 1 1.51775204622527191e+01
2499 1 1.45194642369419000e+01
2500 1 2.18655541195657790e+01
2501 1 2.34172008723243934e+01
2502 1 1.98420226555151586e+01
2503 1 1.93260311720830309e+01
2504 1 2.30120874530867674e+01
2505 1 2.18454912257894769e+01
2506 1 2.29410871349590941e+01
2507 1 1.75989226660889742e+01
2508 1 1.86639529206240979e+01
2509 1 1.85878352331120027e+01
2510 1 1.78679111239558601e+01
2511 1 1.82645962349472057e+01
2512 1 1.74941020096831785e+01
2513 1 1.68047112984464739e+01
2514 1 1.71763199672221134e+01
2515 1 1.97556117773327422e+01
2516 1 1.89526057171920712e+01
2517 1 2.42029350278611943e+01
2518 1 2.40389515950084558e+01
2519 1 2.36620561563644678e+01
2520 1 4.04738541731160808e+01
2521 1 4.13486841064123496e+01
2522 1 1.42669638572171635e+01
2523 1 3.95678643380188930e+01
2524 1 4.06491829305123744e+01
2525 1 3.43614418768383629e+01
2526 1 1.82913514864398863e+01
2527 1 4.23853373612471458e+01
2528 1 4.20774162347067460e+01
2529 1 1.00516571543735527e+01
2530 1 1.11160754023795203e+01
2531 1 4.86134568560336504e+01
2532 1 4.83378012654040887e+01
2533 1 4.31052310531565581e+01
2534 1 4.25762907830070034e+01
2535 1 2.74480841028001770e+01
2536 1 4.25822447850049173e+01
2537 1 3.85286413580161025e+01
2538 1 3.89784100091245094e+01
2539 1 4.07304528985799408e+01
2540 1 4.11354756086867042e+01
2541 1 2.09779533824697673e+01
2542 1 4.17136279629742717e+01
2543 1 3.12924149898357804e+01
2544 1 3.34777289828142628e+01
2545 1 8.69340137577138528e+00
2546 1 7.20017328610710905e+00
2547 1 4.05347143944837143e+01
2548 1 2.60391133335405875e+01
2549 1 2.40362476055773158e+01
2550 1 4.56998388534134534e+01
2551 1 4.78916142880436340e+01
2552 1 4.45923851384628946e+01
2553 1 4.84985319039442402e+01
2554 1 4.26000887325916935e+01
2555 1 4.44513404542443098e+01
2556 1 4.38650571701318484e+01
2557 1 4.54158269684266713e+01
2558 1 1.51821190494425853e+01
2559 1 3.99566018836124073e+01
2560 1 1.09806928010510205e+01
2561 1 1.74787771166399715e+01
2562 1 2.18229804173901059e+01
2563 1 1.63943721619049043e+01
2564 1 1.84990720224448388e+01
2565 1 1.94100669909206083e+01
2566 1 1.94259097822602342e+01
2567 1 1.59710606266684767e+01
2568 1 1.53116117749417402e+01
2569 1 1.75303316121043267e+01
2570 1 2.85780575055158010e+01
2571 1 2.04052676803656041e+01
2572 1 2.54315998879637313e+01
2573 1 3.06665480793768239e+01
2574 1 3.13826104249642555e+01
2575 1 3.06088841072888016e+01
2576 1 3.22837844292311047e+01
2577 1 3.09603025734730686e+01
2578 1 3.48443473572129108e+01
2579 1 3.75348938283320379e+01
2580 1 1.67488210585325632e+01
2581 1 1.75832400130932704e+01
2582 1 1.80592531643465470e+01
2583 1 2.24964469227598016e+01
2584 1 1.54969354988298349e+01
2585 1 1.59976792844078979e+01
2586 1 1.67193000486112844e+01
2587 1 1.49622779505343164e+01
2588 1 2.03542520198536288e+01
2589 1 2.06815109742341576e+01
2590 1 2.28146331501718045e+01
2591 1 2.04921198590404394e+01
2592 1 2.18957793991506016e+01
2593 1 1.79440625265204652e+01
2594 1 1.85653761702219136e+01
2595 1 1.84785418554433569e+01
2596 1 1.84290511173392666e+01
2597 1 1.80969099762555565e+01
2598 1 1.73759134187580173e+01
2599 1 1.87313378483064419e+01
2600 1 1.80210096333862140e+01
2601 1 2.05440454263611656e+01
2602 1 1.95301896493713798e+01
2603 1 2.14403075022234972e+01
2604 1 2.49953819839279987e+01
2605 1 2.59180323753507409e+01
2606 1 2.34543819823966722e+01
2607 1 2.47240409439647344e+01
2608 1 4.23833292539239324e+01
2609 1 4.48075940320257047e+01
2610 1 4.15339014049923136e+01
2611 1 3.66916744843351452e+01
2612 1 1.83225694168118771e+01
2613 1 4.35997610423647401e+01
2614 1 5.04772802555745059e+00
2615 1 8.33947816121514940e+00
2616 1 5.04573395953004606e+01
2617 1 5.13507609555788136e+01
2618 1 2.22207485310762252e+01
2619 1 1.76640452077718528e+01
2620 1 1.27448525380902957e+01
2621 1 7.52217854266649155e+00
2622 1 4.48227584535703940e+01
2623 1 4.47092562515291476e+01
2624 1 4.49628237446113843e+01
2625 1 3.09824419251833554e+01
2626 1 2.88243513613226199e+01
2627 1 4.37684744140980300e+01
2628 1 4.66733454634073226e+01
2629 1 4.84600068197245903e+01
2630 1 4.05895053274573669e+01
2631 1 4.23703573231536552e+01
2632 1 4.31941431515274203e+01
2633 1 4.32194615424049076e+01
2634 1 1.99670317046357582e+01
2635 1 4.50419654738002109e+01
2636 1 3.79766321295840754e+01
2637 1 3.52525059423129719e+01
2638 1 3.39919592159317308e+00
2639 1 1.71977338333274932e+00
2640 1 4.23061351038137872e+01
2641 1 2.44690453129773076e+01
2642 1 2.71216694825572837e+01
2643 1 5.15243392807498211e+01
2644 1 5.01581146393846780e+01
2645 1 4.95741186771821276e+01
2646 1 5.31785401960729516e+01
2647 1 4.61232832173599405e+01
2648 1 4.69993215000433011e+01
2649 1 4.77014546823644423e+01
2650 1 4.79968889067948510e+01
2651 1 4.24239275625069681e+01
2652 1 4.18265977453054418e+01
2653 1 1.50259159916726297e+01
2654 1 1.66330111637387219e+01
2655 1 3.88209380777331177e+01
2656 1 4.05522901070251720e+01
2657 1 3.66754464662615121e+01
2658 1 1.03607200719893395e+01
2659 1 2.24536151181193482e+01
2660 1 2.51205005466765030e+01
2661 1 2.13131092962348383e+01
2662 1 2.08132777701373008e+01
2663 1 2.18052426929562522e+01
2664 1 2.40654191069678767e+01
2665 1 2.37788006718374660e+01
2666 1 2.35241564691958622e+01
2667 1 1.94855561569419073e+01
2668 1 1.98486558568562614e+01
2669 1 2.93493883281970476e+01
2670 1 2.55053833570669219e+01
2671 1 3.11418696509228461e+01
2672 1 3.14729948675320905e+01
2673 1 3.18738163462576445e+01
2674 1 3.19104703477228924e+01
2675 1 3.21352912197114335e+01
2676 1 3.29550454488134363e+01
2677 1 3.48898198397295332e+01
2678 1 2.63174459312038991e+01
2679 1 2.36584110860539099e+01
2680 1 1.59050107870050166e+01
2681 1 1.69554396157768892e+01
2682 1 1.62046414260470648e+01
2683 1 1.80883676088472036e+01
2684 1 1.99530030984413322e+01
2685 1 1.69138063662975533e+01
2686 1 1.53130216382971049e+01
2687 1 1.55699211764467051e+01
2688 1 2.14100515419567721e+01
2689 1 2.19346282098398326e+01
2690 1 2.33437634692337177e+01
2691 1 1.89505001227316150e+01
2692 1 1.96943584072076554e+01
2693 1 2.23466500298072397e+01
2694 1 1.94549222050683568e+01
2695 1 1.87166565975174990e+01
2696 1 2.03525557764146612e+01
2697 1 2.26176593870307201e+01
2698 1 2.18108305913371581e+01
2699 1 2.70479409763444600e+01
2700 1 2.54711490620531436e+01
2701 1 2.59848667518089762e+01
2702 1 2.48343702295248825e+01
2703 1 2.12515256538678017e+01
2704 1 1.97639045672011235e+01
2705 1 5.31997981998882850e+01
2706 1 1.43557650822570544e+01
2707 1 2.22399402114268341e+01
2708 1 1.87357475520733345e+01
2709 1 3.89495719127794118e+01
2710 1 1.26906388887644965e+01
2711 1 8.74014868123138555e+00
2712 1 4.53649327679607453e+01
2713 1 4.66729843118880368e+01
2714 1 4.70476004550721356e+01
2715 1 4.73467068601648364e+01
2716 1 3.30471348307443265e+01
2717 1 3.05015635921758559e+01
2718 1 4.46863815852464086e+01
2719 1 4.39440942441071627e+01
2720 1 4.88726036940656101e+01
2721 1 5.02584164899225243e+01
2722 1 4.32374971854420380e+01
2723 1 4.83908342291462290e+01
2724 1 4.46737453613653486e+01
2725 1 4.52898823812059561e+01
2726 1 2.10892880092308879e+01
2727 1 1.87467474076505951e+01
2728 1 4.87539102031475764e+01
2729 1 4.06421597055215855e+01
2730 1 3.71831153901284850e+01
2731 1 8.69826619567177883e-01
2732 1 -2.93279480246755764e+00
2733 1 4.49946797428498257e+01
2734 1 2.50861592938286968e+01
2735 1 3.07251531462164600e+01
2736 1 5.25832578122452290e+01
2737 1 5.24433950135603695e+01
2738 1 5.34996074862400661e+01
2739 1 4.93471262893716087e+01
2740 1 5.06260162726306291e+01
2741 1 4.99048789986698438e+01
2742 1 4.98976899770236457e+01
2743 1 4.41667291387873320e+01
2744 1 4.21615995150580929e+01
2745 1 1.63285119422288538e+01
2746 1 1.39036869413094699e+01
2747 1 3.77135148852219757e+01
2748 1 3.97415722524068187e+01
2749 1 3.44350836269731317e+01
2750 1 3.59039467804221886e+01
2751 1 8.92995174882865861e+00
2752 1 1.13000556316256091e+01
2753 1 2.76616247558189059e+01
2754 1 2.65047455919529291e+01
2755 1 2.85660983528108652e+01
2756 1 2.37210840140409438e+01
2757 1 2.61228913873802711e+01
2758 1 2.52206338437521289e+01
2759 1 2.60890690626415243e+01
2760 1 2.76018057729183113e+01
2761 1 2.77477762711802711e+01
2762 1 2.44959373022859843e+01
2763 1 2.55505629236019622e+01
2764 1 3.00494800828468733e+01
2765 1 2.92884177279977038e+01
2766 1 3.16367706213789113e+01
2767 1 3.22302804978448592e+01
2768 1 3.24035430874075061e+01
2769 1 3.25774238132861669e+01
2770 1 3.23346265221717317e+01
2771 1 3.23138662255125126e+01
2772 1 3.23224766912669210e+01
2773 1 3.28467450458156023e+01
2774 1 2.72256715350752714e+01
2775 1 2.49093954491680485e+01
2776 1 2.21147814297553040e+01
2777 1 1.55560759285187835e+01
2778 1 1.66968272305404675e+01
2779 1 1.58749019189529896e+01
2780 1 1.78623442033440476e+01
2781 1 1.74656131181427625e+01
2782 1 1.83267154452195804e+01
2783 1 1.99049906845857372e+01
2784 1 1.57611885743294664e+01
2785 1 2.19519540589468711e+01
2786 1 2.30636096652667959e+01
2787 1 2.44645215559820102e+01
2788 1 2.13888607581105781e+01
2789 1 2.35395035253187785e+01
2790 1 2.15266349993002741e+01
2791 1 2.31864069532189063e+01
2792 1 2.73481660413610932e+01
2793 1 2.82748433468828502e+01
2794 1 2.65860817661996371e+01
2795 1 2.60843607308893972e+01
2796 1 1.90690723733082663e+01
2797 1 2.00353644672896714e+01
2798 1 2.31439303510436503e+01
2799 1 2.25275776150358453e+01
2800 1 2.15761644921513778e+01
2801 1 2.20124153982994919e+01
2802 1 2.47054492593080042e+01
2803 1 4.64502831970160983e+01
2804 1 4.87641045379167437e+01
2805 1 3.38179650616762117e+01
2806 1 4.06483472772689893e+01
2807 1 4.57800202268135976e+01
2808 1 -3.34129495011689803e+00
2809 1 5.05583501688388353e+01
2810 1 4.59450140111832468e+01
2811 1 5.08675917286249657e+01
2812 1 4.97500586130283722e+01
2813 1 3.63914964522903119e+01
2814 1 4.60515527806887732e+01
2815 1 4.90005831089572510e+01
2816 1 4.72889309113728089e+01
2817 1 4.78652452042677368e+01
2818 1 4.67240510998121579e+01
2819 1 4.77817949734310758e+01
2820 1 2.06953275705090434e+01
2821 1 2.32189362375922279e+01
2822 1 1.87392588929013826e+01
2823 1 4.98298598603508935e+01
2824 1 4.37805931641380539e+01
2825 1 4.05259270620785159e+01
2826 1 5.05143295134821741e+01
2827 1 -3.96264200972582170e+00
2828 1 -4.14052357035730978e+00
2829 1 3.34249822800480487e+01
2830 1 4.69813441623509647e+01
2831 1 2.64371546919149871e+01
2832 1 2.91960609304253360e+01
2833 1 3.29372228596399665e+01
2834 1 3.68847540577627555e+01
2835 1 5.14414780912781069e+01
2836 1 5.18172920359044582e+01
2837 1 5.15856155719169038e+01
2838 1 5.25322971866045734e+01
2839 1 5.26711963243936836e+01
2840 1 4.05940411654259350e+01
2841 1 4.50153451546241072e+01
2842 1 4.27588957505575777e+01
2843 1 1.49319185999531712e+01
2844 1 1.74926184341018249e+01
2845 1 1.45772211891235983e+01
2846 1 3.67249816380263709e+01
2847 1 3.84455557793349314e+01
2848 1 3.25757242755530569e+01
2849 1 3.43995102512760056e+01
2850 1 3.54565694501720330e+01
2851 1 8.50034566212929477e+00
2852 1 9.26415507790698634e+00
2853 1 1.23135529782302964e+01
2854 1 2.96714587718763951e+01
2855 1 2.98264140829212785e+01
2856 1 2.78237922414286878e+01
2857 1 3.00334906926341922e+01
2858 1 3.01868352834371834e+01
2859 1 3.09446552416471441e+01
2860 1 3.11978842551519762e+01
2861 1 2.89096639410092529e+01
2862 1 3.15045941935093481e+01
2863 1 3.20673396536184043e+01
2864 1 3.22177733502774331e+01
2865 1 3.21578978407631766e+01
2866 1 3.19451367224950644e+01
2867 1 3.21717672132376293e+01
2868 1 3.22686325053866057e+01
2869 1 3.22779270216386749e+01
2870 1 3.20867727808620273e+01
2871 1 3.21253653576944558e+01
2872 1 3.17337940398521461e+01
2873 1 2.82959626818367767e+01
2874 1 2.51090593497798871e+01
2875 1 1.58154570449786025e+01
2876 1 1.61694580049087264e+01
2877 1 1.64593975137834470e+01
2878 1 1.94108646972203864e+01
2879 1 1.75280567671288523e+01
2880 1 1.85631063463380741e+01
2881 1 1.71311558957923182e+01
2882 1 2.21092247914582885e+01
2883 1 2.45690589319970094e+01
2884 1 2.35821807853198671e+01
2885 1 2.48553826846719730e+01
2886 1 2.43993582811161360e+01
2887 1 2.42919144544728134e+01
2888 1 2.45591542327905685e+01
2889 1 2.43603193507160469e+01
2890 1 2.56083875501721394e+01
2891 1 2.86998909170239820e+01
2892 1 2.79790518703963649e+01
2893 1 2.95634281708373585e+01
2894 1 2.63341741732652039e+01
2895 1 2.78221788088563748e+01
2896 1 2.74059686359161532e+01
2897 1 2.14568539675207290e+01
2898 1 2.43804780529121849e+01
2899 1 2.30355990210599018e+01
2900 1 2.36042575167413062e+01
2901 1 2.37973746374199315e+01
2902 1 2.33606928182524207e+01
2903 1 2.59209213604704480e+01
2904 1 2.67112201263108098e+01
2905 1 4.97242761597857239e+01
2906 1 4.98906044882080764e+01
2907 1 5.15176974891784525e+01
2908 1 4.75490929626320025e+01
2909 1 5.02911726253700024e+01
2910 1 5.08855306575061093e+01
2911 1 4.00000996713217489e+01
2912 1 4.68785646282746598e+01
2913 1 4.86970760612592173e+01
2914 1 4.85674054860944580e+01
2915 1 4.79830986178804295e+01
2916 1 5.23534675305843820e+01
2917 1 5.00824719017627586e+01
2918 1 2.24619061183912017e+01
2919 1 2.02210153559741386e+01
2920 1 4.91350861910101955e+01
2921 1 4.72690521175774876e+01
2922 1 4.17100338386444989e+01
2923 1 4.38941870522825965e+01
2924 1 3.25591752213893528e+01
2925 1 5.01869915873829697e+01
2926 1 5.05247612858357513e+01
2927 1 -6.01401652879410431e+00
2928 1 -6.15416550079850744e+00
2929 1 5.26467383102948716e+01
2930 1 3.32574277840674100e+01
2931 1 4.79876260455123216e+01
2932 1 2.62087436374815859e+01
2933 1 3.13220425470953678e+01
2934 1 3.62882811295214793e+01
2935 1 4.97689657195085644e+01
2936 1 4.05227177111982684e+01
2937 1 4.98299035847426595e+01
2938 1 5.42056386822547651e+01
2939 1 5.41779168424255460e+01
2940 1 4.14922255379547522e+01
2941 1 4.57419755577026521e+01
2942 1 2.09616321973640041e+01
2943 1 1.81874845605909705e+01
2944 1 1.62407261508245533e+01
2945 1 3.71930303330340735e+01
2946 1 3.97117529713085418e+01
2947 1 3.80100683779250232e+01
2948 1 3.17715932318470777e+01
2949 1 3.44605837486589266e+01
2950 1 3.59776326385271759e+01
2951 1 8.33284613587077949e+00
2952 1 1.41901129632200860e+01
2953 1 1.02961835088967923e+01
2954 1 2.82144586694186188e+01
2955 1 3.19867494805637378e+01
2956 1 3.03762624339405214e+01
2957 1 3.13372117653530680e+01
2958 1 3.38208329260397633e+01
2959 1 3.25130116198251002e+01
2960 1 3.21281430795328617e+01
2961 1 3.20392776856222596e+01
2962 1 3.19322178946304831e+01
2963 1 3.20743184764171758e+01
2964 1 3.18110047639254248e+01
2965 1 3.21320458968396778e+01
2966 1 3.16673685822093809e+01
2967 1 3.13705945469175305e+01
2968 1 3.19425098323808889e+01
2969 1 3.15444036297868351e+01
2970 1 3.11909333355105716e+01
2971 1 2.78103214369252463e+01
2972 1 2.64091621381251933e+01
2973 1 2.45024551955468048e+01
2974 1 2.57049373838998356e+01
2975 1 2.25868981205123163e+01
2976 1 1.70143894049948941e+01
2977 1 1.72639402495610881e+01
2978 1 1.98739359702997938e+01
2979 1 1.91842470375639813e+01
2980 1 2.02038236919625191e+01
2981 1 2.38296488614947855e+01
2982 1 2.40413076366385710e+01
2983 1 2.57650039049725663e+01
2984 1 2.69666586897979599e+01
2985 1 2.57408415983679895e+01
2986 1 2.58074174529004523e+01
2987 1 2.56112801662782736e+01
2988 1 2.62663922144920825e+01
2989 1 2.66958843501022542e+01
2990 1 2.97341290667215077e+01
2991 1 3.08340250200664201e+01
2992 1 2.81317711171659681e+01
2993 1 2.93847376019949316e+01
2994 1 2.45817477700638385e+01
2995 1 2.58989677191487040e+01
2996 1 2.55549936797304156e+01
2997 1 2.47778031731467969e+01
2998 1 2.53102465233392593e+01
2999 1 2.67645112700956425e+01
3000 1 2.73753217904557289e+01
3001 1 3.16543619797766524e+01
3002 1 5.08816435516594723e+01
3003 1 2.32192663678774132e+01
3004 1 4.41531915713436405e+01
3005 1 4.68194614767734194e+01
3006 1 4.49014030177662917e+01
3007 1 5.30765549309555666e+01
3008 1 5.39471000197895521e+01
3009 1 5.42973692743716825e+01
3010 1 3.21635660200765301e+01
3011 1 5.07361083763901419e+01
3012 1 -6.68795177760362414e+00
3013 1 -6.61532780254526820e+00
3014 1 3.81935544493881167e+01
3015 1 3.80166543588873438e+01
3016 1 5.21938576522913067e+01
3017 1 4.96600127255157844e+01
3018 1 3.96751915385445955e+01
3019 1 3.27935522237038413e+01
3020 1 3.36791171874680018e+01
3021 1 4.92735388249947661e+01
3022 1 2.78286987950770275e+01
3023 1 2.51541541004002660e+01
3024 1 3.20266630118481430e+01
3025 1 3.62514541376711250e+01
3026 1 4.84868313344340649e+01
3027 1 4.37088308156534211e+01
3028 1 4.70559868317686139e+01
3029 1 5.43469988841039466e+01
3030 1 5.19787701937467403e+01
3031 1 4.35837823197384040e+01
3032 1 4.71604338386047317e+01
3033 1 4.22191889545788328e+01
3034 1 2.36858237950415713e+01
3035 1 3.68695900618782275e+01
3036 1 1.89367954191437029e+01
3037 1 2.13116641294995688e+01
3038 1 3.80129629505923390e+01
3039 1 3.84408150019895842e+01
3040 1 3.98564617373332766e+01
3041 1 3.82644384421923149e+01
3042 1 3.13938165791897674e+01
3043 1 3.50774883371221478e+01
3044 1 1.58591920799742940e+01
3045 1 1.87797368523054757e+01
3046 1 8.83711515073576592e+00
3047 1 1.04317689911233771e+01
3048 1 3.10221215848907832e+01
3049 1 1.27419938793313765e+01
3050 1 2.61512086311919418e+01
3051 1 2.82686219504835101e+01
3052 1 2.93416481907902238e+01
3053 1 3.24972076947065887e+01
3054 1 2.89877618914675921e+01
3055 1 3.35506344802501744e+01
3056 1 3.35254815870392804e+01
3057 1 3.10450544246997673e+01
3058 1 3.16814400656616151e+01
3059 1 3.13569652040848332e+01
3060 1 3.06943365556077303e+01
3061 1 3.18436691439982660e+01
3062 1 3.13978808610662483e+01
3063 1 3.09498498285791577e+01
3064 1 3.16843682347518261e+01
3065 1 3.14705435475669297e+01
3066 1 3.16406532292433269e+01
3067 1 3.12432045678235788e+01
3068 1 2.57606661583588057e+01
3069 1 2.43386876357749706e+01
3070 1 2.39737795057162018e+01
3071 1 2.44630410553507822e+01
3072 1 2.43390721985094629e+01
3073 1 2.31031390619309853e+01
3074 1 2.03014336973986431e+01
3075 1 2.29467032615731448e+01
3076 1 2.73836630264858911e+01
3077 1 2.84619107856710052e+01
3078 1 2.53426202230560484e+01
3079 1 2.68893473962316989e+01
3080 1 3.04792907262305697e+01
3081 1 2.43318969943596350e+01
3082 1 2.55807387355342293e+01
3083 1 2.65947526609299203e+01
3084 1 2.61252492330870218e+01
3085 1 2.74606442150966963e+01
3086 1 2.81887816304694319e+01
3087 1 2.63618298995870788e+01
3088 1 2.70344215467830296e+01
3089 1 3.12375945717078203e+01
3090 1 2.99270892907629005e+01
3091 1 2.72276762460403887e+01
3092 1 2.74505532350465380e+01
3093 1 2.66529664567968325e+01
3094 1 2.81633220361256171e+01
3095 1 2.80834741306511688e+01
3096 1 2.78033378381713199e+01
3097 1 3.16543930901575123e+01
3098 1 3.17910088627509566e+01
3099 1 5.35925007344306792e+01
3100 1 3.21266159050229376e+01
3101 1 5.07550287543354628e+01
3102 1 -6.80566006402642376e+00
3103 1 1.48481792463803171e+01
3104 1 1.61455819194123400e+01
3105 1 3.88678127079951281e+01
3106 1 3.88812996871501042e+01
3107 1 5.20254921662857015e+01
3108 1 4.93276279299431621e+01
3109 1 4.17398265970260809e+01
3110 1 3.62264872439899719e+01
3111 1 3.29014707885353346e+01
3112 1 3.40005939020882266e+01
3113 1 3.51003071829502318e+01
3114 1 3.73628564074869018e+01
3115 1 2.25182729309708165e+01
3116 1 4.71843710247085255e+01
3117 1 4.94994011181866398e+01
3118 1 2.92966775134897794e+01
3119 1 3.49138602890361724e+01
3120 1 3.93596391734964044e+01
3121 1 4.64963772346589437e+01
3122 1 5.08866053977330708e+01
3123 1 5.30372737943532755e+01
3124 1 4.47730683607163158e+01
3125 1 4.20770084242244167e+01
3126 1 2.91794659694818925e+01
3127 1 2.65726963799745270e+01
3128 1 3.14441298839165029e+01
3129 1 3.83273881177554188e+01
3130 1 2.17811959304033316e+01
3131 1 2.31205469736512086e+01
3132 1 2.65116939536150085e+01
3133 1 3.96010843064177749e+01
3134 1 3.96657315860206978e+01
3135 1 3.81784433895520934e+01
3136 1 3.90345696423694619e+01
3137 1 2.37947201976398972e+01
3138 1 3.16056290665841608e+01
3139 1 3.13537599236032953e+01
3140 1 3.14238805697246590e+01
3141 1 3.19861968974587896e+01
3142 1 3.62818747483076862e+01
3143 1 1.94318875987326365e+01
3144 1 2.39513943398882354e+01
3145 1 2.35466171080477871e+01
3146 1 9.51818333463135069e+00
3147 1 1.06834841013153987e+01
3148 1 3.15203325812474375e+01
3149 1 1.43675990900341279e+01
3150 1 2.38841847670979028e+01
3151 1 2.61592823563241588e+01
3152 1 2.63110938716071168e+01
3153 1 2.60297030709430040e+01
3154 1 2.69459805719184224e+01
3155 1 2.85268245781947520e+01
3156 1 3.10716954403629515e+01
3157 1 3.14887859589132582e+01
3158 1 2.90412600022450782e+01
3159 1 2.86641142949224665e+01
3160 1 2.86829429361567705e+01
3161 1 3.02010555755593693e+01
3162 1 3.13973192073589225e+01
3163 1 3.14418120648289836e+01
3164 1 3.07736053063549448e+01
3165 1 3.15855459496490170e+01
3166 1 3.17717617628170039e+01
3167 1 3.16213798817705189e+01
3168 1 2.16779938472662188e+01
3169 1 2.33260227602129468e+01
3170 1 2.31944330052894365e+01
3171 1 2.29508018474207560e+01
3172 1 2.74911542920341319e+01
3173 1 2.56381131706965064e+01
3174 1 2.70595925800775170e+01
3175 1 3.00676926301447445e+01
3176 1 3.17245445909383434e+01
3177 1 3.36666812042971273e+01
3178 1 2.95092575495328120e+01
3179 1 3.06218696553724570e+01
3180 1 2.83645088705234869e+01
3181 1 3.22528145917616271e+01
3182 1 2.40438472403500825e+01
3183 1 2.61861576541517884e+01
3184 1 2.67302716559100979e+01
3185 1 2.87075990692260596e+01
3186 1 2.70673196737590303e+01
3187 1 2.74474182043268513e+01
3188 1 3.09362964384946970e+01
3189 1 2.92940680304993357e+01
3190 1 2.90353514780426210e+01
3191 1 2.81931668649595721e+01
3192 1 3.14723693230003150e+01
3193 1 3.15103100236451716e+01
3194 1 1.78802446618781481e+01
3195 1 3.97725676026099464e+01
3196 1 4.99577204294009221e+01
3197 1 4.38268030801200439e+01
3198 1 3.69542979966702205e+01
3199 1 2.48540591327688141e+01
3200 1 3.27823757995929554e+01
3201 1 3.36669417721949173e+01
3202 1 3.46167537236459850e+01
3203 1 3.60869754022027607e+01
3204 1 3.83585189592251297e+01
3205 1 4.08913665976851846e+01
3206 1 2.45661467710021846e+01
3207 1 3.01015050345571531e+01
3208 1 4.57271586478349121e+01
3209 1 4.15089155678487174e+01
3210 1 4.81129196143262163e+01
3211 1 3.37754274765259410e+01
3212 1 4.22369789895601571e+01
3213 1 3.84226124101499309e+01
3214 1 4.63462737982450221e+01
3215 1 4.94358381619230798e+01
3216 1 4.36474146110855727e+01
3217 1 3.29217141095193426e+01
3218 1 3.21471027377537482e+01
3219 1 3.99049556503054674e+01
3220 1 4.08741198897605997e+01
3221 1 2.60424803354148757e+01
3222 1 2.83850276358636968e+01
3223 1 2.69597413980807623e+01
3224 1 2.92342645577805520e+01
3225 1 3.01531096414408992e+01
3226 1 3.80472323718121572e+01
3227 1 3.91729948091844307e+01
3228 1 4.06697188757831611e+01
3229 1 3.86650729663881805e+01
3230 1 3.97576878806036618e+01
3231 1 2.80112895064016634e+01
3232 1 3.23220244267304011e+01
3233 1 3.19028882664967952e+01
3234 1 3.24519033372823316e+01
3235 1 3.81104211203940864e+01
3236 1 2.28088742151587667e+01
3237 1 2.83078714493246331e+01
3238 1 2.84082314186343581e+01
3239 1 1.11631725685959804e+01
3240 1 1.35070925703548461e+01
3241 1 3.24937592055469935e+01
3242 1 3.24165351039639376e+01
3243 1 1.82752284599910517e+01
3244 1 2.55171886035649500e+01
3245 1 2.31772743753813479e+01
3246 1 2.41875191554973696e+01
3247 1 2.08889159696305029e+01
3248 1 2.00924469526021348e+01
3249 1 2.51565048379385310e+01
3250 1 2.65893531162379233e+01
3251 1 2.83097285275040527e+01
3252 1 2.73010126900719818e+01
3253 1 2.70641410491701713e+01
3254 1 2.70834900476020124e+01
3255 1 2.99909415065588654e+01
3256 1 2.81159880324713534e+01
3257 1 3.23897079730298074e+01
3258 1 3.16480591700521323e+01
3259 1 3.11084439253114589e+01
3260 1 3.19329557141218530e+01
3261 1 1.96714448666709352e+01
3262 1 2.25235827853471875e+01
3263 1 2.08726360222511182e+01
3264 1 2.17830492814729091e+01
3265 1 3.13286731796380451e+01
3266 1 3.24178627323359407e+01
3267 1 3.47756006989481250e+01
3268 1 3.50841683624150349e+01
3269 1 3.14752430879684013e+01
3270 1 3.10415116570291012e+01
3271 1 2.91506397548340033e+01
3272 1 2.99856937155971792e+01
3273 1 3.40993063303361765e+01
3274 1 2.39359158584421650e+01
3275 1 2.52595880206470476e+01
3276 1 2.73371472362462562e+01
3277 1 2.94920301762224852e+01
3278 1 2.81431541219363872e+01
3279 1 2.77190568943254050e+01
3280 1 3.04448089346353470e+01
3281 1 3.06772715745232993e+01
3282 1 2.94582970793596601e+01
3283 1 2.85232280479879847e+01
3284 1 2.87922590568029584e+01
3285 1 3.09212847221740930e+01
3286 1 3.09448929493639042e+01
3287 1 2.72473857553969872e+01
3288 1 3.41529831272777145e+01
3289 1 3.55460290771987886e+01
3290 1 4.03705297873365154e+01
3291 1 4.00820901299099930e+01
3292 1 2.72577623313746109e+01
3293 1 3.38333508008323136e+01
3294 1 3.23499894262053189e+01
3295 1 4.50773605146212262e+01
3296 1 3.94597803888824572e+01
3297 1 3.75960811589288753e+01
3298 1 4.16705147983098101e+01
3299 1 3.94141228225823284e+01
3300 1 4.59426261951811412e+01
3301 1 3.74689919052189921e+01
3302 1 4.20241128389568672e+01
3303 1 4.54673478864674721e+01
3304 1 3.65298250481994913e+01
3305 1 4.24802141522957157e+01
3306 1 3.77498001783731922e+01
3307 1 2.62136621654183344e+01
3308 1 3.28349450505380318e+01
3309 1 3.57246443240386071e+01
3310 1 3.13931610118138948e+01
3311 1 4.15331725976853861e+01
3312 1 4.18148617578946613e+01
3313 1 2.98590336714901525e+01
3314 1 3.26120274055214949e+01
3315 1 3.07550206811018541e+01
3316 1 3.25939754592657636e+01
3317 1 3.85636206000145876e+01
3318 1 3.76045158911298358e+01
3319 1 3.64875908706827019e+01
3320 1 4.03175997397563535e+01
3321 1 3.85894298509612170e+01
3322 1 3.30487616758816429e+01
3323 1 3.14897323081621145e+01
3324 1 3.30810358601817569e+01
3325 1 3.34644664624165173e+01
3326 1 3.33397972229883592e+01
3327 1 3.36614615963187660e+01
3328 1 3.52428487301913123e+01
3329 1 4.21302406646919323e+01
3330 1 3.81479739120101229e+01
3331 1 1.18804917209994159e+01
3332 1 2.28482393612190684e+01
3333 1 2.97484005421267845e+01
3334 1 3.46602415084582560e+01
3335 1 3.42498628152361420e+01
3336 1 1.45101967982142934e+01
3337 1 3.38774085773193434e+01
3338 1 3.51914804107961032e+01
3339 1 3.36479925010221734e+01
3340 1 1.94194271123988784e+01
3341 1 2.47135234695204247e+01
3342 1 2.24732693874598048e+01
3343 1 2.44154973403752678e+01
3344 1 2.56152521927354115e+01
3345 1 2.12504965672886392e+01
3346 1 2.07248762194796576e+01
3347 1 1.97874208090807713e+01
3348 1 2.60000015281298253e+01
3349 1 2.66194312383390432e+01
3350 1 2.66843099062241649e+01
3351 1 2.78601317328619515e+01
3352 1 2.99269569880577144e+01
3353 1 3.06308874658203258e+01
3354 1 2.88724078108123514e+01
3355 1 2.74978764949665937e+01
3356 1 2.94469023151107407e+01
3357 1 2.84181004268411392e+01
3358 1 3.27857130191844490e+01
3359 1 3.17797412140915334e+01
3360 1 2.08726953553513646e+01
3361 1 2.01231904107482933e+01
3362 1 2.00310325959220563e+01
3363 1 2.25483290632818303e+01
3364 1 2.10499439439550180e+01
3365 1 3.46088698345358736e+01
3366 1 3.34078399625667970e+01
3367 1 3.54551942400394893e+01
3368 1 3.16828002875616122e+01
3369 1 3.25877300428857382e+01
3370 1 3.29905436160681376e+01
3371 1 3.43395787173186235e+01
3372 1 2.81019970235525456e+01
3373 1 3.11337059813930210e+01
3374 1 3.09236329116080420e+01
3375 1 2.40410141609016463e+01
3376 1 2.60694355428447508e+01
3377 1 2.89726743512234677e+01
3378 1 2.85121233469906095e+01
3379 1 2.99358133524847148e+01
3380 1 3.06115010895362616e+01
3381 1 2.97629502206828391e+01
3382 1 2.92555902741999851e+01
3383 1 3.14695250911439004e+01
3384 1 2.90140571903453726e+01
3385 1 2.92468075486551911e+01
3386 1 3.02512590974806308e+01
3387 1 3.02660426060207435e+01
3388 1 2.95108480310762289e+01
3389 1 3.60540371520537661e+01
3390 1 4.23165377567501295e+01
3391 1 3.76672271018818989e+01
3392 1 3.60348005643547893e+01
3393 1 3.94094135765603042e+01
3394 1 4.18146773155560965e+01
3395 1 3.95586468247665195e+01
3396 1 2.69072977303706793e+01
3397 1 3.31990997820157858e+01
3398 1 3.36998686891805050e+01
3399 1 4.27977487428443979e+01
3400 1 3.20603238839485485e+01
3401 1 3.36807297109313026e+01
3402 1 3.33977976540663803e+01
3403 1 3.50123032368132243e+01
3404 1 3.62052721851229364e+01
3405 1 3.71368028875176961e+01
3406 1 3.83819778643829181e+01
3407 1 3.52860736476801762e+01
3408 1 3.37577479903986983e+01
3409 1 3.44848120752207947e+01
3410 1 3.42876634189351108e+01
3411 1 3.59741040967247727e+01
3412 1 3.97160490890904612e+01
3413 1 3.91063749860903869e+01
3414 1 3.84418501414726421e+01
3415 1 4.05819934988593616e+01
3416 1 4.39865428319811613e+01
3417 1 1.27399376070712016e+01
3418 1 2.54268499770516172e+01
3419 1 3.16632667594765351e+01
3420 1 3.72868566810755411e+01
3421 1 3.86122141241017616e+01
3422 1 3.70721527477533996e+01
3423 1 3.79602783729609925e+01
3424 1 1.44728749363546942e+01
3425 1 2.23228926222643196e+01
3426 1 3.57583176317831786e+01
3427 1 3.60227405714474997e+01
3428 1 3.66938977812385119e+01
3429 1 1.90680208930060537e+01
3430 1 2.31331538807009629e+01
3431 1 2.57750431956744031e+01
3432 1 2.23512255803822057e+01
3433 1 2.12440753468037258e+01
3434 1 2.36024448635830666e+01
3435 1 2.75863218922912239e+01
3436 1 2.92423083479735411e+01
3437 1 3.08784917162774519e+01
3438 1 3.05150007030976589e+01
3439 1 3.32134529927019315e+01
3440 1 3.08323188611221681e+01
3441 1 2.88408959657574115e+01
3442 1 2.95699482854610025e+01
3443 1 2.96549305222665964e+01
3444 1 3.23358140385330302e+01
3445 1 2.22481326681681040e+01
3446 1 2.13181808911082555e+01
3447 1 2.26082362869081841e+01
3448 1 3.15222112526074518e+01
3449 1 3.42098520486121274e+01
3450 1 3.25735258935027900e+01
3451 1 3.30908015677571967e+01
3452 1 2.65774929825615018e+01
3453 1 2.94947706729254939e+01
3454 1 2.51812127916910953e+01
3455 1 2.92451659107680335e+01
3456 1 2.95502025998494346e+01
3457 1 3.04880039420275253e+01
3458 1 2.96855926543072108e+01
3459 1 3.11378461122520775e+01
3460 1 2.92391097251278502e+01
3461 1 2.94610675789020569e+01
3462 1 2.88549485064275473e+01
3463 1 2.82042494793757292e+01
3464 1 4.33342924841532238e+01
3465 1 3.44234859517153566e+01
3466 1 3.56008322132798085e+01
3467 1 3.91715591709563213e+01
3468 1 3.43212282758419462e+01
3469 1 3.52963303617495896e+01
3470 1 3.94267660214420133e+01
3471 1 3.72320311948962512e+01
3472 1 3.41615061304455523e+01
3473 1 4.37236448942132583e+01
3474 1 4.23594405297561636e+01
3475 1 4.55047874841673732e+01
3476 1 3.80138472870386508e+01
3477 1 1.24652823191513580e+01
3478 1 2.47998874170248236e+01
3479 1 2.82297747387260571e+01
3480 1 3.19009715294259486e+01
3481 1 3.37440258434752991e+01
3482 1 4.27706053664243839e+01
3483 1 3.98008403155472692e+01
3484 1 3.90303355840844262e+01
3485 1 3.82090479250002630e+01
3486 1 3.85076127992419472e+01
3487 1 3.91400982766615400e+01
3488 1 3.66011958691917556e+01
3489 1 1.63706118462340626e+01
3490 1 1.37573962651168937e+01
3491 1 2.22535438966066970e+01
3492 1 3.79711630382626026e+01
3493 1 3.92691864374180781e+01
3494 1 4.00932272529241018e+01
3495 1 1.91309465729708812e+01
3496 1 2.62638656594215938e+01
3497 1 2.66022811447691687e+01
3498 1 2.47076098714022514e+01
3499 1 2.63036382486546785e+01
3500 1 3.05140145405619734e+01
3501 1 3.21427013335451051e+01
3502 1 3.18646209001404799e+01
3503 1 3.17843945953177318e+01
3504 1 3.14688101403752114e+01
3505 1 3.10164744836080963e+01
3506 1 3.04320088389393142e+01
3507 1 3.13089693975173446e+01
3508 1 3.36601627501862737e+01
3509 1 3.45170317745022999e+01
3510 1 2.50023737765412193e+01
3511 1 2.67475642345760178e+01
3512 1 2.55157678826089409e+01
3513 1 3.04899420035463322e+01
3514 1 3.17756035468153684e+01
3515 1 3.23071066177980981e+01
3516 1 3.10602265069284904e+01
3517 1 2.87671976882436446e+01
3518 1 2.91577497625956035e+01
3519 1 2.89222578394972523e+01
3520 1 2.98188564250186339e+01
3521 1 3.01862376297972972e+01
3522 1 2.90555789842241836e+01
3523 1 2.84761175515383655e+01
3524 1 2.75553480352466877e+01
3525 1 3.52612204404968921e+01
3526 1 4.18998688474304259e+01
3527 1 3.54488954974690671e+01
3528 1 4.49672428013338106e+01
3529 1 3.92929565497100839e+01
3530 1 1.29349298215866462e+01
3531 1 2.16686651109138637e+01
3532 1 2.53119844795558464e+01
3533 1 3.49990755972984360e+01
3534 1 2.83734248750786904e+01
3535 1 3.21274209474622410e+01
3536 1 3.41848136362886237e+01
3537 1 3.65210293459249442e+01
3538 1 3.96568848843611832e+01
3539 1 3.80372515061144227e+01
3540 1 3.61321432807311140e+01
3541 1 3.91487175382430550e+01
3542 1 3.86075353975333257e+01
3543 1 3.83117031239349402e+01
3544 1 3.29591321514753233e+01
3545 1 4.14693948122747713e+01
3546 1 4.02210119868881009e+01
3547 1 1.57254975331061715e+01
3548 1 1.39129066691119565e+01
3549 1 2.48738381537206017e+01
3550 1 3.99950633268965561e+01
3551 1 4.13861782003326510e+01
3552 1 1.81526535388950983e+01
3553 1 2.01514818331172414e+01
3554 1 2.94461683465676174e+01
3555 1 2.87556292836175338e+01
3556 1 2.83346010425866019e+01
3557 1 2.93521125003529377e+01
3558 1 3.29384082873708266e+01
3559 1 3.39365638653652226e+01
3560 1 3.47130905035751383e+01
3561 1 3.37485372615386012e+01
3562 1 2.95808265451812318e+01
3563 1 2.97539166617701056e+01
3564 1 3.41787262419893594e+01
3565 1 3.21891668597592471e+01
3566 1 3.10298285342447038e+01
3567 1 3.39863063240534728e+01
3568 1 3.48229545842262951e+01
3569 1 2.76446828108893570e+01
3570 1 2.86019540138951811e+01
3571 1 2.98110136098580121e+01
3572 1 3.04553007912331033e+01
3573 1 2.89624977923601783e+01
3574 1 2.93181569869291110e+01
3575 1 3.03372404837466831e+01
3576 1 3.06224016835017743e+01
3577 1 2.95918393468559273e+01
3578 1 2.85408068351849487e+01
3579 1 2.81210380876885750e+01
3580 1 2.90920601696043448e+01
3581 1 2.83600343669815480e+01
3582 1 2.75160284448610213e+01
3583 1 2.68834671648177626e+01
3584 1 2.24193556975455230e+01
3585 1 1.67058390423936700e+01
3586 1 4.05426388979850216e+01
3587 1 2.84371784975816162e+01
3588 1 3.33529701850029454e+01
3589 1 3.09887241536989997e+01
3590 1 3.77522455949326243e+01
3591 1 3.59014173772795075e+01
3592 1 2.83051889397500069e+01
3593 1 3.29440575691276436e+01
3594 1 3.67854003659222784e+01
3595 1 3.58352867718738253e+01
3596 1 3.80597606806108999e+01
3597 1 3.22676149726913764e+01
3598 1 3.89262642893165562e+01
3599 1 3.55600112071201195e+01
3600 1 4.02791929715247790e+01
3601 1 4.10136444656999188e+01
3602 1 4.02434473756916233e+01
3603 1 3.88584072010944439e+01
3604 1 2.71272567024921258e+01
3605 1 1.48658854654479011e+01
3606 1 1.55378812932004760e+01
3607 1 2.50607845112218115e+01
3608 1 2.27674563186371905e+01
3609 1 3.98854203948263404e+01
3610 1 1.73571929962146605e+01
3611 1 2.04464937398695952e+01
3612 1 3.15580188350880739e+01
3613 1 3.07376584023016974e+01
3614 1 3.12505306632366100e+01
3615 1 3.07223295447292379e+01
3616 1 3.41697049510263255e+01
3617 1 3.32571420950473566e+01
3618 1 3.41148023867278880e+01
3619 1 3.29822023134412063e+01
3620 1 3.30172933499447083e+01
3621 1 2.85918818292808012e+01
3622 1 2.93656870254311393e+01
3623 1 2.95359084470756805e+01
3624 1 3.39578996702530276e+01
3625 1 3.29042588224479786e+01
3626 1 3.14955551503832467e+01
3627 1 3.36014255296044908e+01
3628 1 2.93411487089713710e+01
3629 1 2.90655869144638928e+01
3630 1 2.97923818530231053e+01
3631 1 2.93455202572875251e+01
3632 1 2.96367850124972740e+01
3633 1 2.95852881547690885e+01
3634 1 2.87014992816134118e+01
3635 1 2.91771746139382309e+01
3636 1 2.96003637712368999e+01
3637 1 2.84539819337413711e+01
3638 1 2.75183198254725703e+01
3639 1 2.76356155435750708e+01
3640 1 2.67459677401998732e+01
3641 1 2.62398611686449748e+01
3642 1 3.07260097608889176e+01
3643 1 3.74685847045399072e+01
3644 1 3.81287210486041346e+01
3645 1 3.05588664493534274e+01
3646 1 3.02414746262579612e+01
3647 1 3.38368398682242528e+01
3648 1 3.43862535336956014e+01
3649 1 3.20056102783851628e+01
3650 1 3.48119022135613605e+01
3651 1 3.79403490702285211e+01
3652 1 3.06161596737503494e+01
3653 1 3.85378212960535365e+01
3654 1 3.86665297664532090e+01
3655 1 3.92890761349300917e+01
3656 1 3.81372698328457034e+01
3657 1 2.91478246968835677e+01
3658 1 3.58050435746723039e+01
3659 1 2.73447274775870177e+01
3660 1 1.53731834010733941e+01
3661 1 2.45987921606494844e+01
3662 1 3.76178575788035516e+01
3663 1 1.71950661980239303e+01
3664 1 2.09652302910475079e+01
3665 1 3.24481589052305637e+01
3666 1 3.04623899147594095e+01
3667 1 3.14890146662658239e+01
3668 1 2.96970054810562054e+01
3669 1 3.15502595828605159e+01
3670 1 3.27149510531119390e+01
3671 1 3.17976610740136714e+01
3672 1 3.17952706379410230e+01
3673 1 3.02633477240809192e+01
3674 1 2.87288786230723474e+01
3675 1 2.80314686911499287e+01
3676 1 2.94843740031082717e+01
3677 1 3.17564655641992708e+01
3678 1 3.14866180696494169e+01
3679 1 2.86220358292281709e+01
3680 1 2.89928557272038887e+01
3681 1 2.85056737884204949e+01
3682 1 2.89575956558725878e+01
3683 1 2.83242126443470852e+01
3684 1 2.85931697374828140e+01
3685 1 2.81933860973215928e+01
3686 1 2.78770680935828636e+01
3687 1 2.80277011239879137e+01
3688 1 2.69584633309480850e+01
3689 1 2.64887956539913354e+01
3690 1 2.63574938342806639e+01
3691 1 2.59535452501569743e+01
3692 1 2.55594465214391882e+01
3693 1 3.18430111339701298e+01
3694 1 3.12145883088112583e+01
3695 1 3.13574430406224387e+01
3696 1 3.35413408257771266e+01
3697 1 3.33486133587717148e+01
3698 1 3.59523580015869797e+01
3699 1 3.09816011388465071e+01
3700 1 3.64769756727068426e+01
3701 1 3.67807144691929082e+01
3702 1 3.63158446070173468e+01
3703 1 3.00804514361759203e+01
3704 1 3.34246174062647228e+01
3705 1 2.86815663066325861e+01
3706 1 2.93924037386982988e+01
3707 1 1.55899981731799784e+01
3708 1 2.49095376449114134e+01
3709 1 2.74138305942699958e+01
3710 1 2.37216210739054638e+01
3711 1 3.47214461705515944e+01
3712 1 1.72838658163633099e+01
3713 1 2.07802192308060789e+01
3714 1 3.03140202378530965e+01
3715 1 2.78082126058520913e+01
3716 1 2.67046924009748707e+01
3717 1 3.09988245307187213e+01
3718 1 2.96615824800699990e+01
3719 1 3.03760735388232455e+01
3720 1 3.08877310397369946e+01
3721 1 3.01232152284479078e+01
3722 1 2.97245335707936604e+01
3723 1 2.90614941155061359e+01
3724 1 2.93986827366866521e+01
3725 1 2.92625288446830609e+01
3726 1 2.72693772742031122e+01
3727 1 2.80996995639657605e+01
3728 1 2.94988256411053662e+01
3729 1 2.73250088569556446e+01
3730 1 2.89498220878379229e+01
3731 1 2.80366134409003678e+01
3732 1 2.84160276784561781e+01
3733 1 2.73636776434381694e+01
3734 1 2.78575489101277256e+01
3735 1 2.76817432100660419e+01
3736 1 2.64634900453144652e+01
3737 1 2.59671577766062818e+01
3738 1 2.56685928212978851e+01
3739 1 2.52554154873674293e+01
3740 1 2.45730407079698132e+01
3741 1 2.38600283822208290e+01
3742 1 2.41745265615616702e+01
3743 1 3.08953259581529345e+01
3744 1 3.31329935380699681e+01
3745 1 3.19507046719423720e+01
3746 1 3.18449493881819734e+01
3747 1 3.36366192269756041e+01
3748 1 3.43317530162476032e+01
3749 1 3.40526054019171127e+01
3750 1 3.17523323428984270e+01
3751 1 3.03003789195781614e+01
3752 1 1.58215210202534049e+01
3753 1 1.58000185679598761e+01
3754 1 2.71987244498454075e+01
3755 1 2.45784242455389119e+01
3756 1 2.71407766268362636e+01
3757 1 3.09061044570749708e+01
3758 1 3.15163864775195854e+01
3759 1 1.77322653631449398e+01
3760 1 2.25987856056858583e+01
3761 1 1.99489430653774242e+01
3762 1 2.47894688364658613e+01
3763 1 2.60575185889209848e+01
3764 1 2.69965887948438770e+01
3765 1 2.79993059434266307e+01
3766 1 2.53516538518221246e+01
3767 1 2.99049914541757715e+01
3768 1 2.92242738404706870e+01
3769 1 2.94842358699747464e+01
3770 1 2.87240296203891319e+01
3771 1 2.84644161117660381e+01
3772 1 2.86766939529057225e+01
3773 1 2.84870260934213384e+01
3774 1 2.63268441339941539e+01
3775 1 2.75962487457092855e+01
3776 1 2.65040886801332043e+01
3777 1 2.60949512098616232e+01
3778 1 2.86807153479387651e+01
3779 1 2.78243187015924747e+01
3780 1 2.82231969392481581e+01
3781 1 2.69287458406770384e+01
3782 1 2.73018901332887935e+01
3783 1 2.55185652398469429e+01
3784 1 2.57829515099711735e+01
3785 1 2.51291301967861500e+01
3786 1 2.44639134991665550e+01
3787 1 2.44841979451532161e+01
3788 1 2.73425078921205653e+01
3789 1 2.47253069054494112e+01
3790 1 2.94711228342178266e+01
3791 1 1.92905334890683768e+01
3792 1 2.46016000438348108e+01
3793 1 2.40509077552881578e+01
3794 1 2.31062556789130156e+01
3795 1 2.01881916591127819e+01
3796 1 2.24718698134468688e+01
3797 1 2.11376783370371690e+01
3798 1 2.39339141850330677e+01
3799 1 2.33091150286960982e+01
3800 1 2.34941611818741087e+01
3801 1 2.25970584439713811e+01
3802 1 2.47171269303015002e+01
3803 1 2.44215037797915890e+01
3804 1 2.53532431752232945e+01
3805 1 2.89609238771248698e+01
3806 1 2.87317528504170276e+01
3807 1 2.82899277297730833e+01
3808 1 2.78939243525765832e+01
3809 1 2.76707285697368803e+01
3810 1 2.62675767463416960e+01
3811 1 2.68090807282575199e+01
3812 1 2.64619099924096517e+01
3813 1 2.62284481032789465e+01
3814 1 2.84741808177624911e+01
3815 1 2.74777264985101972e+01
3816 1 2.79625149056956026e+01
3817 1 2.69834326370997033e+01
3818 1 2.58849956272626294e+01
3819 1 2.55827870292477222e+01
3820 1 2.28064549057049177e+01
3821 1 2.32024855086298452e+01
3822 1 2.30478779753108896e+01
3823 1 2.19062226650389604e+01
3824 1 2.28165631050345539e+01
3825 1 2.09693683621494209e+01
3826 1 2.18305239462015059e+01
3827 1 2.15398937163097877e+01
3828 1 2.54214354589331890e+01
3829 1 2.27292912399136853e+01
3830 1 2.08116224351206860e+01
3831 1 2.18472901512081528e+01
3832 1 2.14734628665645033e+01
3833 1 2.08365604680629168e+01
3834 1 2.17039144799636077e+01
3835 1 2.35303493177597289e+01
3836 1 2.44399675400770313e+01
3837 1 2.85871093620158589e+01
3838 1 2.83212106572570654e+01
3839 1 2.84764168078506223e+01
3840 1 2.77908333948487751e+01
3841 1 2.70379785792012548e+01
3842 1 2.60952907214333116e+01
3843 1 2.70391295788770094e+01
3844 1 2.69364672776895091e+01
3845 1 2.82847686003221099e+01
3846 1 2.76558630718797929e+01
3847 1 2.72899521893209602e+01
3848 1 2.79702021539618499e+01
3849 1 2.17696760218335825e+01
3850 1 2.17110655757216442e+01
3851 1 2.05676228306782640e+01
3852 1 2.13340800577599694e+01
3853 1 2.10379318733965697e+01
3854 1 2.12451037843985091e+01
3855 1 2.11838986332053132e+01
3856 1 2.52302313642438705e+01
3857 1 2.11580955601424776e+01
3858 1 2.21681089489705876e+01
3859 1 2.04438553449016815e+01
3860 1 2.05599450435182796e+01
3861 1 2.10346318573000275e+01
3862 1 2.05443577284612608e+01
3863 1 2.04880371303970357e+01
3864 1 2.29354018910295352e+01
3865 1 2.43863965371489080e+01
3866 1 2.37141429742153846e+01
3867 1 2.85866185411060094e+01
3868 1 2.80804035481156369e+01
3869 1 2.84413438861488395e+01
3870 1 2.73899641650584798e+01
3871 1 2.62844394265312609e+01
3872 1 2.81133248176711881e+01
3873 1 2.87808053328915108e+01
3874 1 2.86565472193600570e+01
3875 1 2.97674194353315755e+01
3876 1 2.06109462995196111e+01
3877 1 2.08053386288552389e+01
3878 1 2.09830451904527671e+01
3879 1 2.53522252817839444e+01
3880 1 2.62920695119939580e+01
3881 1 2.20866048349533273e+01
3882 1 2.11014011478678931e+01
3883 1 2.04997627433543954e+01
3884 1 2.06530624268504468e+01
3885 1 2.04762500228552469e+01
3886 1 2.04447540199964592e+01
3887 1 2.31092619510453865e+01
3888 1 2.49532683412391698e+01
3889 1 2.42753182830401073e+01
3890 1 2.87433373143768982e+01
3891 1 2.81065978863964112e+01
3892 1 2.71866119508028632e+01
3893 1 2.94296865269447636e+01
3894 1 2.91541052221519728e+01
3895 1 3.08660514712506320e+01
3896 1 3.10026373110377094e+01
3897 1 3.00442968151385479e+01
3898 1 2.99925839091668465e+01
3899 1 3.07089011701352135e+01
3900 1 3.02432345594840193e+01
3901 1 2.64986006087731631e+01
3902 1 2.57053663307107989e+01
3903 1 2.18337803952530933e+01
3904 1 2.08720418292432122e+01
3905 1 2.04508539868841517e+01
3906 1 2.04535016562297258e+01
3907 1 2.05275969968931378e+01
3908 1 2.07331067600202203e+01
3909 1 2.23866152643608025e+01
3910 1 2.40765214323703312e+01
3911 1 2.50801388914484775e+01
3912 1 2.72875076796476144e+01
3913 1 2.89941961111885433e+01
3914 1 3.01411279078434973e+01
3915 1 2.80428017070465430e+01
3916 1 2.93623513509235110e+01
3917 1 2.84820244481419351e+01
3918 1 3.05456124734665586e+01
3919 1 3.10374498219610331e+01
3920 1 3.10529291337314461e+01
3921 1 3.00765942831554014e+01
3922 1 2.60373019808205299e+01
3923 1 2.13834091580852466e+01
3924 1 2.04434079166142872e+01
3925 1 2.05824088386068276e+01
3926 1 2.09263747455156590e+01
3927 1 2.13567686878091010e+01
3928 1 2.36697765874780472e+01
3929 1 2.24344063902711817e+01
3930 1 2.47848014195818926e+01
3931 1 3.05403023903571764e+01
3932 1 3.10213857159832536e+01
3933 1 2.65362677658156336e+01
3934 1 2.90379545518161777e+01
3935 1 2.86632380377894691e+01
3936 1 2.76971764747013509e+01
3937 1 3.15363611209862960e+01
3938 1 3.11906229755636808e+01
3939 1 2.94053468403826663e+01
3940 1 2.05086685289725885e+01
3941 1 2.07322074989805785e+01
3942 1 2.09502538663960785e+01
3943 1 2.14630179267634240e+01
3944 1 2.15685822611548552e+01
3945 1 2.31211465673879601e+01
3946 1 2.18617789627640171e+01
3947 1 2.57307005222759386e+01
3948 1 2.39979995775188932e+01
3949 1 3.04338062320851535e+01
3950 1 3.15229552767856553e+01
3951 1 2.84646510948294882e+01
3952 1 2.76451086250208853e+01
3953 1 2.72353172613097207e+01
3954 1 2.71233936758766312e+01
3955 1 3.10908038171195251e+01
3956 1 2.80225298790713815e+01
3957 1 2.06470314166600595e+01
3958 1 2.08157262279612283e+01
3959 1 2.10313820888427507e+01
3960 1 2.11512226869235320e+01
3961 1 2.10234127320201338e+01
3962 1 2.09707147206615367e+01
3963 1 2.80017914146422200e+01
3964 1 2.18339762995532993e+01
3965 1 2.57722703009366647e+01
3966 1 2.36195904190716419e+01
3967 1 3.02841034233092969e+01
3968 1 2.71364991513982936e+01
3969 1 2.73133777519487850e+01
3970 1 2.84994959275578275e+01
3971 1 2.73775585358263776e+01
3972 1 2.08816840887832527e+01
3973 1 2.06712743244717458e+01
3974 1 2.11698774841793558e+01
3975 1 2.05962961776398750e+01
3976 1 2.80220458987694592e+01
3977 1 2.03479069637175769e+01
3978 1 2.58760954169639135e+01
3979 1 2.28203102723558402e+01
3980 1 2.70866976117245493e+01
3981 1 2.76905029027427076e+01
3982 1 2.72975077718529811e+01
3983 1 2.74115526136927805e+01
3984 1 2.80610358238949864e+01
3985 1 2.76497810123629364e+01
3986 1 2.73806952378674033e+01
3987 1 2.06540631403470485e+01
3988 1 2.03023663148722697e+01
3989 1 2.03196643251110132e+01
3990 1 2.04563027281123020e+01
3991 1 2.11160621615692889e+01
3992 1 2.06599158125745355e+01
3993 1 2.65024403079161104e+01
3994 1 1.98563596957055424e+01
3995 1 1.98837796300323539e+01
3996 1 2.37394974861367238e+01
3997 1 2.58694168795384378e+01
3998 1 2.93159786455297251e+01
3999 1 2.73520466339338526e+01
4000 1 2.67710976686718354e+01
4001 1 2.64188142599079825e+01
4002 1 2.86260748378167627e+01
4003 1 2.77987457079949181e+01
4004 1 2.03129603896521118e+01
4005 1 2.49150393805140169e+01
4006 1 2.01901742150918615e+01
4007 1 2.04310032689909384e+01
4008 1 1.99987305811524756e+01
4009 1 2.09859973438462575e+01
4010 1 2.46262844766061377e+01
4011 1 1.95587037592790445e+01
4012 1 2.18045444570404534e+01
4013 1 1.95965846322908632e+01
4014 1 1.94832079735628980e+01
4015 1 2.51874024986441540e+01
4016 1 2.25533939280755220e+01
4017 1 2.37930701128599331e+01
4018 1 3.16119994823438049e+01
4019 1 3.03106789340842120e+01
4020 1 2.74205864468852667e+01
4021 1 2.60906544972357217e+01
4022 1 2.80395160982989786e+01
4023 1 2.85177870621019700e+01
4024 1 2.97894955896371521e+01
4025 1 2.03927535413401415e+01
4026 1 2.25474159037521957e+01
4027 1 1.91868742857508110e+01
4028 1 2.03419491036561730e+01
4029 1 1.92387541997362739e+01
4030 1 1.87239291376223385e+01
4031 1 2.39551025722922120e+01
4032 1 2.50205734164117324e+01
4033 1 2.00469037323997590e+01
4034 1 2.11183173361494596e+01
4035 1 2.61147138658130906e+01
4036 1 2.16449323544499137e+01
4037 1 2.25738268202392902e+01
4038 1 3.29446260685577172e+01
4039 1 3.35688623881010102e+01
4040 1 3.21229107127594418e+01
4041 1 3.11232981775831838e+01
4042 1 2.74664211908475195e+01
4043 1 2.94108614420119281e+01
4044 1 3.35591832200393938e+01
4045 1 2.08245113650475844e+01
4046 1 1.87679728537395931e+01
4047 1 1.93568817843067436e+01
4048 1 1.86397796047838433e+01
4049 1 1.83042070345140502e+01
4050 1 2.49700183928290720e+01
4051 1 2.35530239898912441e+01
4052 1 1.84624331778589017e+01
4053 1 1.92828564145624668e+01
4054 1 1.96259592913731176e+01
4055 1 1.97991497648678170e+01
4056 1 2.62086414652313167e+01
4057 1 2.07932687779831298e+01
4058 1 2.16527203047365084e+01
4059 1 3.35722192290114450e+01
4060 1 3.26661375300059547e+01
4061 1 3.07527813891899697e+01
4062 1 2.87223929075488016e+01
4063 1 3.30662568066752343e+01
4064 1 3.28931676511243012e+01
4065 1 1.82861960951107960e+01
4066 1 1.80417387659258317e+01
4067 1 1.80923377431005896e+01
4068 1 2.37306253892625740e+01
4069 1 2.22939213780993555e+01
4070 1 1.84035355067236353e+01
4071 1 1.79660765022071729e+01
4072 1 1.81303249517382206e+01
4073 1 1.84622140022673662e+01
4074 1 1.93974888351276995e+01
4075 1 1.93811021213263821e+01
4076 1 1.86382819275860676e+01
4077 1 2.33103233041844575e+01
4078 1 2.45277495795311076e+01
4079 1 1.97977135132349176e+01
4080 1 2.08171023732295346e+01
4081 1 3.18333703024812777e+01
4082 1 2.77165515490292655e+01
4083 1 3.18421739234628944e+01
4084 1 3.19271222395169971e+01
4085 1 2.17069686376397790e+01
4086 1 1.80011594415035852e+01
4087 1 1.79273408213036944e+01
4088 1 1.82255896211752599e+01
4089 1 1.78541500001898790e+01
4090 1 1.78671412767036131e+01
4091 1 1.80983943088088068e+01
4092 1 1.86970944311304770e+01
4093 1 1.81861411960476325e+01
4094 1 1.85017324354173240e+01
4095 1 2.51569587734535993e+01
4096 1 2.23640741330000488e+01
4097 1 2.13786349874961381e+01
4098 1 1.87556591389340319e+01
4099 1 1.89941337666119487e+01
4100 1 1.96686476166321746e+01
4101 1 2.00738009193565965e+01
4102 1 2.85936735053566515e+01
4103 1 3.11785713465489458e+01
4104 1 3.09689064983048219e+01
4105 1 3.00938023870923068e+01
4106 1 1.85006616510052844e+01
4107 1 2.63189077285081048e+01
4108 1 1.83161363986754715e+01
4109 1 1.81858815875482165e+01
4110 1 2.45458418986266942e+01
4111 1 1.97185612374351606e+01
4112 1 2.06487279048479273e+01
4113 1 1.85624665690677162e+01
4114 1 1.89479274165243936e+01
4115 1 2.82885229499072359e+01
4116 1 2.94481360161023993e+01
4117 1 3.12188667602121512e+01
4118 1 3.08929890526811661e+01
4119 1 3.15255455867556975e+01
4120 1 3.09419282178521549e+01
4121 1 1.92456541676559070e+01
4122 1 1.97629990008715701e+01
4123 1 1.88923258431917205e+01
4124 1 1.86870696883693306e+01
4125 1 3.09917144992337690e+01
4126 1 3.18351070882685505e+01
4127 1 3.18258143452998539e+01
4128 1 3.25006137213975492e+01
4129 1 3.20532535142866948e+01
4130 1 3.23825517393887097e+01
4131 1 3.28613493174964688e+01
4132 1 3.28447329009914881e+01
4133 1 3.32557597226041963e+01
4134 1 3.30244395588221735e+01
4135 1 3.31233000500568551e+01
4136 1 3.32984699780235331e+01
4137 1 3.37403145237928825e+01
4138 1 3.41156999373080012e+01
4139 1 3.37047806212775356e+01
4140 1 3.39489792758452040e+01
4141 1 3.39024928135736445e+01
4142 1 3.35774456928061795e+01
4143 1 3.34851054781613371e+01
4144 1 3.39626952835121756e+01
4145 1 3.45017348571521154e+01
4146 1 3.46103986524050882e+01
4147 1 3.49871520288946698e+01
4148 1 3.43971594194717341e+01
4149 1 3.45163605015165800e+01
4150 1 3.49578698313403251e+01
4151 1 3.36541096387777117e+01
4152 1 3.39294886577668748e+01
4153 1 3.35751320005009077e+01
4154 1 3.44263440003838568e+01
4155 1 3.50491740708155959e+01
4156 1 3.55503194878447033e+01
4157 1 3.53534061397818604e+01
4158 1 3.53093438111399749e+01
4159 1 3.49682519937484386e+01
4160 1 3.56301052621667935e+01
4161 1 3.57858711007334378e+01
4162 1 3.49845115731982830e+01
4163 1 3.54110221592329069e+01
4164 1 3.57903315183048960e+01
4165 1 3.56319510476063783e+01
4166 1 3.54314082272183342e+01
4167 1 3.55016700595420645e+01
4168 1 3.58672169842909270e+01
4169 1 3.58671338087967300e+01
4170 1 3.53380196171788512e+01
4171 1 3.57992751318193854e+01
4172 1 3.58733674357182863e+01
4173 1 3.57510118005605904e+01
4174 1 3.58645556008632056e+01
4175 1 3.58423335022260829e+01
