%%MatrixMarket matrix coordinate  real general
4175 1 4175
1 1 1.61091338538033881e+02
2 1 1.61878650698616156e+02
3 1 1.60728969660991197e+02
4 1 1.62206675851027995e+02
5 1 1.61731812377282921e+02
6 1 1.49494353551845393e+02
7 1 1.41594884417787313e+02
8 1 1.74723911319354386e+02
9 1 1.61601237917605260e+02
10 1 8.71646519675853568e+01
11 1 1.25394313328297855e+02
12 1 1.11912581368015637e+02
13 1 1.57476444392114018e+02
14 1 1.08784311014256346e+02
15 1 -4.11863959468281777e+01
16 1 -1.69396708868505613e+02
17 1 2.89471380744983691e+01
18 1 1.07850688317434575e+02
19 1 8.05780786798875397e+01
20 1 6.79429235399054363e+01
21 1 3.12405305976696681e+01
22 1 -1.95176489389425740e+02
23 1 -2.34172373170547985e+02
24 1 -3.98275005292655706e+01
25 1 -8.97489285669378773e+01
26 1 4.38084618481841304e+01
27 1 2.41589227872609733e+01
28 1 -2.67957224059081227e+01
29 1 -1.02842716927562403e+01
30 1 -2.33352707706241972e+02
31 1 -3.49217257924644343e+02
32 1 -1.47729726126472741e+02
33 1 1.10995739409908944e+00
34 1 -7.71734294484229721e+00
35 1 -2.43475333137046448e+01
36 1 9.27497691004264624e+00
37 1 -1.08551307594451085e+01
38 1 -2.08008272630903178e+02
39 1 -2.71392879142044762e+02
40 1 -9.92466755075308527e+01
41 1 -4.47022240850619124e+00
42 1 -8.14221475459945232e+00
43 1 -1.10537165669938720e+01
44 1 6.57901281901004786e+00
45 1 3.50568462003692289e+01
46 1 7.42486624089625735e+01
47 1 1.99462084040974794e+01
48 1 5.62289198631229397e+01
49 1 -1.22413684335813819e+01
50 1 -1.23674433923850458e+02
51 1 -1.19799411319756146e+02
52 1 -8.65912680808186224e+01
53 1 5.08861287116777916e+00
54 1 -3.76130624611941933e+00
55 1 -1.40956740156564422e+01
56 1 -5.54805209365628382e+00
57 1 -2.16327963683112117e+01
58 1 -1.01910937389894833e+01
59 1 2.07979140702961374e+01
60 1 1.43079606918386361e+02
61 1 7.60135974594990813e+01
62 1 1.32050319617860424e+02
63 1 1.31316017017766370e+02
64 1 -2.00231003125576343e+01
65 1 -3.22699258290798454e+01
66 1 1.39840494606108354e+01
67 1 1.01568479706577008e+01
68 1 1.51191394200162712e+01
69 1 6.34949323611280363e+01
70 1 8.56216243999455600e+01
71 1 2.20060791506840729e+01
72 1 9.68382335414122792e+01
73 1 1.81941947639324354e+02
74 1 -4.78993391522329137e+00
75 1 -6.67602318742519252e+00
76 1 -2.86982000885810073e+01
77 1 -4.64924124778805208e+01
78 1 -5.70628086086585196e+00
79 1 -1.47644708893993770e+00
80 1 2.29155770002478334e+02
81 1 2.07886770806523202e+02
82 1 -2.62795187789319051e+01
83 1 7.36601729366162914e+01
84 1 3.22500099387317647e+01
85 1 1.64878880036441046e+02
86 1 -1.38569014844348697e+01
87 1 1.87875540918890010e+02
88 1 1.41912065554404620e+02
89 1 2.77334200763592264e+02
90 1 -5.32527088104528090e+00
91 1 -5.64232918408916646e+01
92 1 -2.54135004055775759e+00
93 1 -1.02587136418370584e+01
94 1 1.13260461703570584e+02
95 1 1.56298793597675768e+02
96 1 1.58380053184902124e+02
97 1 2.38551993014586046e+01
98 1 5.92786434730614573e+01
99 1 1.37761372985825830e+02
100 1 -4.65693289086131088e+01
101 1 -5.00333758105783843e+01
102 1 -6.97419750434064127e+01
103 1 1.89803218817436807e+01
104 1 9.73770237166326491e-02
105 1 5.12827439769248095e+00
106 1 2.87583266756332193e+02
107 1 2.56312464073374485e+02
108 1 -2.18909795579070448e+01
109 1 1.18654412922394044e+02
110 1 7.40653583919437466e+01
111 1 4.17233529391453644e+01
112 1 7.97007530335151415e+00
113 1 -3.16609827111293889e+01
114 1 3.72110984832502822e+02
115 1 2.42424274284389327e+02
116 1 3.52221778341060599e+02
117 1 -6.17656345743993995e+01
118 1 1.86252720967053506e+02
119 1 2.30128133979303669e+02
120 1 4.41402130067801522e+02
121 1 1.49039023939198447e+01
122 1 3.94087131076195334e+01
123 1 -7.66114182896028240e+01
124 1 -1.00573326600466459e+02
125 1 -9.50713500123283950e+01
126 1 -2.18321374599096529e+01
127 1 -1.06054161735052745e+02
128 1 1.81918224392673125e+02
129 1 2.20155579122426047e+02
130 1 9.20834837189000694e+01
131 1 3.50770752826306165e+01
132 1 2.06912959146647211e+02
133 1 -2.16065569335492881e+02
134 1 -9.04639674000555658e+01
135 1 3.89811399118660233e+01
136 1 2.59228368763716475e+01
137 1 5.10063295905833591e+00
138 1 1.07982183795603177e+01
139 1 3.29368494843847088e+02
140 1 3.91779169869792128e+01
141 1 4.37450244049017343e+01
142 1 -7.45827448850303512e+01
143 1 9.44879514677984211e+00
144 1 -4.63601892806151739e+01
145 1 6.74498285968989961e+01
146 1 1.13951341008166324e+02
147 1 2.87375613108599843e+01
148 1 -1.25751969715836047e+01
149 1 -5.10454263547123759e+01
150 1 4.41740028230278540e+02
151 1 4.79566717515743164e+02
152 1 -1.80989783472694569e+02
153 1 -1.51270007174318721e+02
154 1 2.97437007652127420e+02
155 1 4.37197615750065893e+02
156 1 1.73219672086581170e+02
157 1 6.11786378273388323e+02
158 1 -1.06410864723778261e+02
159 1 3.05723285232421574e+02
160 1 2.41743061245892676e+02
161 1 5.54515616588259832e+02
162 1 7.13294005082140785e+01
163 1 -1.20388613191505058e+02
164 1 -1.43563643719523043e+02
165 1 -1.78247878807511398e+02
166 1 2.74831220141160202e+02
167 1 -2.86050916698911010e+02
168 1 1.90543878456651470e+01
169 1 2.05213323645801353e+02
170 1 4.41374319976565914e+01
171 1 1.51952354292755331e+02
172 1 -1.91130376313926860e+02
173 1 3.82654837449658544e+02
174 1 1.97674611298505774e+01
175 1 1.26553154405136993e+02
176 1 -3.24550648630626995e+02
177 1 -1.23141170136848345e+02
178 1 -8.67307735920219045e+01
179 1 -7.69813128756244680e+01
180 1 2.66719919738491569e+02
181 1 -1.06894373395462150e+01
182 1 2.09427906976858424e+02
183 1 1.21187962160965341e+02
184 1 6.48576665366391438e+01
185 1 1.11360431854031496e+01
186 1 -3.36152941203104376e+01
187 1 4.99331038571445333e+02
188 1 6.39424225280740870e+02
189 1 4.04863166617225772e+02
190 1 -2.81733860960942991e+02
191 1 4.09902246864590211e+02
192 1 1.54181487736312761e+02
193 1 7.25163327050049247e+02
194 1 9.48967456279800103e+02
195 1 -2.08420454341807215e+02
196 1 2.67608142366790332e+02
197 1 5.10415596530054700e+02
198 1 6.29679748536474108e+02
199 1 3.25524621299239357e+02
200 1 -6.38423406379738978e+00
201 1 -2.19350039486163439e+02
202 1 -2.93408220148338273e+02
203 1 -4.24253303328815207e+02
204 1 -3.34579290305345694e+02
205 1 1.73604964291504757e+02
206 1 2.24201644263664491e+02
207 1 8.94381790825366210e+01
208 1 -3.30736682894990906e+02
209 1 6.26838946115720130e+00
210 1 -1.28601148247747147e+02
211 1 -1.99197165284276622e+02
212 1 -9.43292471490280064e+01
213 1 -4.21039744876689269e+02
214 1 -8.15323185181872390e+00
215 1 -4.70443733665067043e+02
216 1 -2.17071064885015801e+02
217 1 -1.35064202133820459e+02
218 1 -8.17113489731496543e+01
219 1 -1.10441051070069719e+02
220 1 -1.02976755964589330e+02
221 1 2.04304521599745300e+02
222 1 8.71225112076218124e+01
223 1 2.33778403029713573e+01
224 1 -2.64818021438809765e+01
225 1 9.13465220585127213e+02
226 1 5.75580134055928056e+02
227 1 3.63539271582335175e+02
228 1 -3.54936297498036140e+02
229 1 4.09660205190330032e+02
230 1 2.32930434076269023e+02
231 1 1.14378810761304280e+02
232 1 1.68170104007906502e+02
233 1 8.10752100374857946e+02
234 1 1.53839933786321103e+03
235 1 -4.61777778687796854e+02
236 1 -3.79394611446788588e+02
237 1 2.31180913972037956e+02
238 1 4.85742271724369971e+02
239 1 2.53082220558421653e+02
240 1 2.97695544167940625e+02
241 1 -7.59927227694629011e+01
242 1 -3.31492966154640897e+02
243 1 -7.64964466034805469e+02
244 1 -6.59404226272084884e+02
245 1 -1.54218195811970816e+02
246 1 1.26435573556349539e+02
247 1 1.86046391106141300e+02
248 1 -1.62997102933446740e+01
249 1 -7.01217459422624074e+01
250 1 -1.23228702075337893e+02
251 1 -1.01745128589828866e+02
252 1 -4.35999257196800016e+01
253 1 -3.77825959682712735e+01
254 1 2.10275800028118226e+02
255 1 -2.43924153382005272e+02
256 1 -8.58518255148198079e+01
257 1 -1.45093473404629833e+02
258 1 -2.38657848814052898e+02
259 1 -4.29192021241013038e+02
260 1 2.12071256538882977e+02
261 1 3.94841836437487501e+01
262 1 -4.64350107228653002e+01
263 1 3.64356149360803556e+02
264 1 3.23853885820104836e+02
265 1 -5.05720654632515505e+02
266 1 -3.75429375302194103e+02
267 1 9.01571165700784576e+01
268 1 -3.97762452921499914e+02
269 1 3.10099793586300223e+02
270 1 3.65984371676697606e+02
271 1 2.36927477435097842e+02
272 1 1.73546547823956388e+02
273 1 5.28630840482897952e+02
274 1 5.26248682068252720e+02
275 1 -4.93108998981571403e+02
276 1 -3.05700814058138633e+02
277 1 1.94624072230163677e+02
278 1 -1.42264753549126823e+02
279 1 3.91465930011653654e+02
280 1 3.90865770805533487e+02
281 1 -1.61709098510100375e+01
282 1 2.09444517952963139e+02
283 1 2.24137259230855648e+02
284 1 -3.81697414915631583e+01
285 1 -1.89170182000246399e+02
286 1 -8.45234017604561814e+02
287 1 -4.34756467092857008e+02
288 1 -6.14270532042456125e+02
289 1 2.37151875956431297e+01
290 1 2.03194316292329262e+02
291 1 1.24691993192513038e+02
292 1 -4.12004676051752341e+01
293 1 -4.10501807022417466e+01
294 1 2.50760706811123981e+01
295 1 -9.99398247040519294e+00
296 1 2.96232601690250021e+02
297 1 2.68370156810762978e+02
298 1 6.16623759610246452e+02
299 1 3.07990412696176520e+02
300 1 3.96331981784300240e+02
301 1 -1.56150122064800399e+02
302 1 -4.46866218219974940e+02
303 1 2.56930340134335893e+02
304 1 1.07061030229033207e+01
305 1 -8.37601065636788604e+01
306 1 -3.85682485215332690e+02
307 1 -4.54974977141009049e+02
308 1 -4.84723718652372725e+02
309 1 -3.45157256000379277e+02
310 1 -1.58515827959595015e+02
311 1 9.92043659441833228e+01
312 1 -2.81348967043211303e+02
313 1 3.54816956342501214e+02
314 1 2.72135898552307367e+02
315 1 3.06726757355423672e+02
316 1 7.04080296226460973e+01
317 1 6.22207638242670313e+01
318 1 3.60901449886050216e+02
319 1 2.43509122621329198e+02
320 1 4.64591324550285591e+01
321 1 2.55782087307307592e+02
322 1 -2.84538818748443873e+02
323 1 -1.94144144209762430e+02
324 1 3.93901337729751390e+02
325 1 -6.50564062348762832e+02
326 1 -3.69917045575696250e+02
327 1 -3.43193213909751933e+02
328 1 4.65865020984373359e+02
329 1 -1.08884103934064910e+03
330 1 -3.07746090338719853e+02
331 1 4.08617005271041251e+02
332 1 9.92238359554295357e+01
333 1 2.85166140168163281e+02
334 1 1.94468137462121348e+02
335 1 1.61914908064700853e+02
336 1 1.38348147903635521e+02
337 1 -1.56467542981836857e+02
338 1 -2.46993202295392180e+01
339 1 -3.40735600708092420e+02
340 1 -6.83386636801710438e+02
341 1 -3.19192991276467637e+02
342 1 -1.82022460873625420e+02
343 1 -2.67712769918258971e+02
344 1 1.10711080887506157e+02
345 1 2.52533012620780482e+02
346 1 1.90331840042699952e+02
347 1 7.19982721918011777e+01
348 1 1.05205825820969672e+01
349 1 1.72212450783886588e+01
350 1 2.33677297490005969e+02
351 1 2.53721351186410260e+02
352 1 6.96432219725757136e+02
353 1 8.24078277906785047e+02
354 1 4.11616645047633313e+02
355 1 -2.73340520046861926e+01
356 1 -2.93693041113559559e+02
357 1 -9.67840297778646232e+02
358 1 -1.75190952022154625e+03
359 1 -1.86641720257996212e+02
360 1 -2.28810382064019478e+02
361 1 9.81218960351358902e+01
362 1 -4.26607303620693529e+02
363 1 6.70258539751743427e+01
364 1 -9.09932868986969794e+01
365 1 6.23203642786707164e+01
366 1 -3.05846793575110496e+02
367 1 -1.32114551799433173e+02
368 1 3.23036476381906198e+02
369 1 2.27871172608210344e+02
370 1 7.90204475316224659e+01
371 1 6.96276396162862881e+01
372 1 5.37849191799395385e+02
373 1 1.62442349521214453e+02
374 1 1.73718154374850144e+02
375 1 1.83248757901866583e+02
376 1 -2.75243822019246863e+02
377 1 -2.59849141536918296e+02
378 1 -2.94694042710655481e+02
379 1 -4.35330307404913412e+02
380 1 1.32518003325036784e+03
381 1 -2.04010313229115980e+02
382 1 -1.32493830575213138e+02
383 1 8.97348377038623994e+02
384 1 -3.76937750802910045e+02
385 1 -2.48071402002057766e+02
386 1 -2.94708536868726810e+02
387 1 -4.70459399155864321e+03
388 1 -1.47012820992385332e+03
389 1 -1.56136574327799735e+02
390 1 4.31400105418853570e+02
391 1 1.94757096420350592e+02
392 1 7.82698077679357311e+01
393 1 3.34831863536367337e+02
394 1 4.65211014989834780e+02
395 1 9.09243846030407070e+01
396 1 1.02764963673910884e+02
397 1 -3.87214674623568484e+01
398 1 -1.82705865788507083e+02
399 1 -3.83061200534499164e+01
400 1 -3.02971848742443399e+02
401 1 6.85733030703529778e+01
402 1 -5.19253367065463394e+01
403 1 -8.67959040564975481e+01
404 1 2.61374183822282362e+02
405 1 1.37121714236801893e+02
406 1 5.30480340324975330e+01
407 1 2.05087503359451745e+02
408 1 5.92675444171853556e+01
409 1 1.21084480978570468e+02
410 1 1.71160069252303174e+02
411 1 2.86926050206413890e+02
412 1 1.46756430511721817e+02
413 1 -2.55517996332371879e+01
414 1 1.82455579434034746e+02
415 1 -1.58701460343821225e+02
416 1 7.03556212727074808e+01
417 1 2.76827611157856381e+02
418 1 7.14439581259185985e+01
419 1 7.06287870921095191e+01
420 1 2.61975296577417339e+02
421 1 -1.46184476713634321e+01
422 1 2.94359032765655229e+02
423 1 2.66077780367883634e+02
424 1 -9.86666339824885941e-01
425 1 -1.96603517057729914e+03
426 1 -2.49672472905479026e+02
427 1 2.17225359780948168e+02
428 1 1.07543816383520408e+02
429 1 -2.79159905871880085e+02
430 1 -2.84660340794010494e+02
431 1 -1.95975855731750494e+03
432 1 -6.51598260316127266e+02
433 1 -2.19472819857425492e+02
434 1 -1.67312060275362910e+02
435 1 4.71344199155782746e+02
436 1 -5.85997123063698595e+01
437 1 -1.60888673600305310e+02
438 1 -1.80909801343768180e+02
439 1 -2.51273699414687911e+02
440 1 -5.75809224990935490e+03
441 1 -8.49543859398471710e+01
442 1 -2.31323196067170933e+00
443 1 3.54126429900002336e+02
444 1 2.51836064382657270e+02
445 1 3.19436347779136781e+02
446 1 2.65510190560793660e+02
447 1 4.05888068583648817e+02
448 1 3.14917992228794787e+02
449 1 2.63616166007227378e+02
450 1 1.77964644690079325e+02
451 1 1.06875332454739080e+02
452 1 4.45741143509377196e+02
453 1 2.25502687723421076e+02
454 1 -2.84822591165508641e+01
455 1 -2.29966953970479409e+02
456 1 -2.66981124017151387e+02
457 1 -1.44616949948308530e+02
458 1 2.45190675991540310e+01
459 1 -5.31344604206871054e+01
460 1 -1.42586231147281239e+02
461 1 2.93734119889725548e+02
462 1 1.14524566882665752e+02
463 1 3.69974717663407546e+02
464 1 3.32594711171974154e+02
465 1 1.81314386700405890e+02
466 1 2.73605010606586063e+02
467 1 4.19331340805330683e+02
468 1 3.82753789115174357e+02
469 1 4.49265498294702979e+02
470 1 6.31806638422821152e+02
471 1 1.70117419590907474e+02
472 1 5.78920194898657101e+01
473 1 9.78712374104063656e+01
474 1 -3.28189216932955219e+01
475 1 -1.28630059271820215e+02
476 1 -3.42288642925428448e+01
477 1 -1.15309683127891844e+03
478 1 -3.86024386509052817e+02
479 1 -6.55566164761871448e+01
480 1 3.82615351598921961e+02
481 1 4.89800641573174289e+02
482 1 -2.27226941243042393e+03
483 1 -2.92928371080495481e+02
484 1 -3.24999688600787692e+02
485 1 1.64597294652300320e+02
486 1 1.41961925073652765e+02
487 1 -3.00112933544828763e+02
488 1 -2.81821446467372709e+02
489 1 -8.62333581211792648e+02
490 1 -1.70015857140509206e+03
491 1 -3.23125066417449773e+02
492 1 -3.31866388699260654e+02
493 1 4.84022103440783837e+02
494 1 8.48081117699057813e+02
495 1 7.94198402587665839e+01
496 1 -1.46744693043281416e+01
497 1 -1.41353922489463315e+02
498 1 -2.28908515337472778e+02
499 1 -1.25675036469370548e+03
500 1 -2.13699163388477542e+00
501 1 4.72114031630658928e+02
502 1 5.37148343533121135e+01
503 1 2.47011498330082105e+02
504 1 3.70459772503150020e+02
505 1 5.76187228010427134e+02
506 1 6.58485541987901115e+02
507 1 6.50000035724946201e+02
508 1 1.90991046461605322e+02
509 1 3.60092255274046522e+02
510 1 3.76229819145685042e+02
511 1 2.29356893585491747e+02
512 1 2.36159048500993947e+02
513 1 6.38540266157073546e+01
514 1 -6.69080058816736027e+01
515 1 -7.34733796773419272e+02
516 1 -2.80985985289746225e+02
517 1 -7.07001230895911590e+01
518 1 1.03056960590656658e+02
519 1 2.53555670208108559e+01
520 1 -5.15583420266826309e+01
521 1 4.53349713062782769e+02
522 1 3.71627002942981051e+02
523 1 3.66336153915753812e+02
524 1 -2.45522983553521271e+02
525 1 -1.33129401758438149e+02
526 1 2.98016470501575128e+01
527 1 4.70415022338975632e+02
528 1 2.36805127344841907e+02
529 1 4.44544329202108088e+02
530 1 3.99059870421454661e+02
531 1 1.00171498471557607e+03
532 1 5.21565081828191978e+02
533 1 1.04047110577498097e+03
534 1 7.57890671143322976e+01
535 1 -4.09429351654533562e+01
536 1 1.55965673327510075e+01
537 1 1.68959017857726472e+01
538 1 -1.85266451365455566e+02
539 1 -9.22354913699759891e+01
540 1 -2.08200346951629342e+02
541 1 -1.98373228899008893e+02
542 1 -2.19167168446636197e+02
543 1 -2.68923021686915661e+02
544 1 -3.53379694364066040e+02
545 1 -2.72759660055281302e+02
546 1 -2.01728989670970464e+02
547 1 -2.56914680139997529e+02
548 1 -4.12491221448439717e+02
549 1 2.60365558915766222e+01
550 1 -3.48533176856817192e+02
551 1 -5.54467191098497551e+02
552 1 6.38387986738356062e+02
553 1 -2.94009464571440958e+02
554 1 2.84039102575948334e+02
555 1 2.08514625475969012e+02
556 1 -1.18215804100011610e+01
557 1 1.34532243407652942e+02
558 1 -3.42297575790670464e+02
559 1 -9.17863058991466914e+02
560 1 -5.20779168276016435e+02
561 1 -4.37684402582657981e+02
562 1 5.86815031009100267e+02
563 1 7.28349448953316454e+01
564 1 -3.81676947122605043e+02
565 1 -8.03830279678756376e+00
566 1 1.73343918203287018e+02
567 1 5.14002984186493705e+01
568 1 -2.83415793966174874e+02
569 1 -1.91938091141830938e+02
570 1 -6.10164222800697416e+02
571 1 -7.73299899845964774e+02
572 1 -1.22550875730068356e+02
573 1 5.99121989620485579e+02
574 1 4.19841770267666305e+01
575 1 1.19114643433328439e+02
576 1 -3.07669494532478893e+01
577 1 4.74101181093035336e+02
578 1 9.85194746327034181e+02
579 1 1.08385774795695374e+03
580 1 1.06701688240757449e+03
581 1 1.76007164948856513e+02
582 1 5.82942713130951446e+01
583 1 -4.03597402882565035e+01
584 1 6.59028247324044401e+01
585 1 2.24557011703070117e+02
586 1 4.08406294220290761e+02
587 1 2.36894235384707457e+02
588 1 1.49406210349674325e+02
589 1 -2.83204017669146424e+02
590 1 -1.37583522940422114e+02
591 1 -5.88915515505432495e+02
592 1 3.22669255010618485e+01
593 1 7.00488157972766743e+01
594 1 -2.71633546514515629e+01
595 1 -2.96452898432577321e+01
596 1 -1.68238150511004037e+01
597 1 1.24947895562763449e+02
598 1 4.45660409383066138e+01
599 1 5.16756175498440030e+02
600 1 3.73507400515480526e+02
601 1 3.46948861740983716e+02
602 1 3.51076662213484894e+02
603 1 2.32171657558656044e+01
604 1 -2.62671445699439118e+02
605 1 3.91817423075795830e+02
606 1 5.92250263703114612e+01
607 1 4.07114599716596047e+02
608 1 5.17885881561484666e+02
609 1 4.06979184560164242e+02
610 1 -4.14205963402998165e+01
611 1 -5.12345841029765126e+01
612 1 -6.30264750278555326e+01
613 1 -8.22939621755760641e+02
614 1 -1.61526880246963174e+02
615 1 -1.24831779592138659e+02
616 1 -4.99999566625900627e+02
617 1 -2.50758466958973969e+02
618 1 -2.02574719376741513e+02
619 1 -3.18415949283950056e+02
620 1 -3.10673215279375597e+02
621 1 -2.74270520105477715e+02
622 1 -2.69369521537757180e+02
623 1 -3.04071352211105250e+02
624 1 -3.53716077031593557e+02
625 1 2.53239447524294832e+02
626 1 9.05860102256676214e+01
627 1 1.11781593361766234e+01
628 1 8.37253849992589068e+01
629 1 -4.42281401251100704e+02
630 1 -5.99124276040843256e+02
631 1 -3.64954995439638992e+02
632 1 -2.98785141380289296e+01
633 1 9.16612930866836905e+02
634 1 -8.56044631094517570e+01
635 1 -3.09597857073609191e+02
636 1 -1.57577146161667855e+02
637 1 4.86202330676124291e+02
638 1 2.15436797733372742e+02
639 1 -3.13581321384898843e+02
640 1 -2.44389749850317173e+02
641 1 -3.77986112264013514e+02
642 1 -5.15320192439783796e+02
643 1 -2.06770760860480181e+02
644 1 -7.80583149665337146e+01
645 1 8.50297159826612528e+02
646 1 3.10685629339427827e+01
647 1 3.34050563546797719e+01
648 1 1.36920291317706706e+01
649 1 -9.33605567543161499e+01
650 1 -3.14727850312628235e+01
651 1 8.72202494435685594e+02
652 1 2.36248596656683594e+03
653 1 7.53863936183777696e+02
654 1 2.32936518908517741e+02
655 1 3.46666597905533592e+02
656 1 -9.77368029209856246e+01
657 1 4.01011389776236840e+01
658 1 -1.43683397653634614e+02
659 1 -5.73237519795621608e+01
660 1 3.48862101928910192e+02
661 1 2.17024580335724977e+02
662 1 5.12406247743479867e+02
663 1 -3.55111983552154840e+01
664 1 2.19171742584178958e+02
665 1 -2.64493546664245798e+02
666 1 -2.16509966108214996e+02
667 1 5.76176258554233343e+01
668 1 1.30284915705440829e+00
669 1 9.65946613704831663e+01
670 1 -1.32230192569686391e+01
671 1 -5.94972410603330388e+01
672 1 1.34846470159441537e+02
673 1 1.22065898710973926e+02
674 1 -1.31445924519317657e+02
675 1 3.21060369275255425e+02
676 1 3.00019989246955220e+02
677 1 -6.08657995276619090e+02
678 1 -2.57240425948385280e+02
679 1 -2.03107164978126820e+00
680 1 3.05328635797476295e+02
681 1 2.80205782183147278e+02
682 1 9.28942170075156497e+01
683 1 -1.19352021143494608e+03
684 1 -1.22711573420332428e+02
685 1 -1.06416425385017277e+02
686 1 -7.27308323303233124e+02
687 1 -5.32805090067426477e+02
688 1 -1.71642243416181714e+02
689 1 -1.36256284265489967e+02
690 1 -3.54380960027385527e+02
691 1 -3.40403363438261181e+02
692 1 -2.32823349477723241e+02
693 1 -2.78653315308910408e+02
694 1 -2.64914075084670515e+02
695 1 -2.66863401681490927e+02
696 1 -4.40671091973898626e+02
697 1 -5.17835197877652149e+01
698 1 1.57228458742469172e+02
699 1 1.09109283378026726e+03
700 1 -2.35959348975130467e+02
701 1 -2.20421983731376912e+02
702 1 -2.01576288083677611e+02
703 1 5.60415437884378889e+02
704 1 3.09919864702931818e+02
705 1 -3.52520603448163968e+02
706 1 -2.72635713652479751e+02
707 1 -3.02789010607732735e+02
708 1 -2.54776144549393763e+02
709 1 -1.26440476335273729e+02
710 1 -3.12866933501837764e+02
711 1 5.74264294442568485e+02
712 1 7.19778945289143962e+02
713 1 2.85001263140388119e+02
714 1 -8.75933990628534502e+01
715 1 -6.10591973403627808e+00
716 1 -2.64129444026095506e+01
717 1 -3.10065566924875604e+01
718 1 -4.68262944436416007e+01
719 1 -1.87124880357739357e+02
720 1 7.62926744379030197e+02
721 1 1.32311666379482017e+03
722 1 8.95818909516268377e+02
723 1 4.21188744007688172e+02
724 1 1.92081739704296524e+02
725 1 3.91217182649135566e+02
726 1 5.42735469481860036e+02
727 1 4.02008628899680218e+01
728 1 -1.73265937981427498e+02
729 1 -1.31374455837662140e+02
730 1 -1.84305852622684256e+02
731 1 -1.69513081334207925e+02
732 1 -1.87163057703534975e+02
733 1 -9.56755368592079947e+01
734 1 1.49302961736877819e+02
735 1 2.84140910022096591e+02
736 1 3.32852689850305637e+02
737 1 2.50393126455568932e+02
738 1 1.62337761782731995e+01
739 1 3.25896184441021660e+02
740 1 -6.14915668997229048e+01
741 1 -4.01283265587189106e+01
742 1 3.13628261430045825e+01
743 1 1.24299935230946858e+02
744 1 -1.99923268443964901e+02
745 1 1.19645995684899646e+02
746 1 1.74227220128703379e+02
747 1 1.02049063136882285e+01
748 1 -6.84090834079091906e+02
749 1 2.05130179967815025e+02
750 1 -5.29852991948323279e+02
751 1 -1.65243746681301076e+02
752 1 9.50220394625416418e+01
753 1 -4.54027592795738641e+01
754 1 -5.21734597735676630e+02
755 1 -6.79933682746168756e+02
756 1 -4.37111165437258080e+02
757 1 -1.18836281527570776e+02
758 1 -3.24000167166566143e+02
759 1 -1.65803699846377725e+02
760 1 -2.30073749610351484e+02
761 1 -2.55689685727318022e+02
762 1 -2.48819907338318785e+02
763 1 -2.37701921978341261e+02
764 1 -2.43702580565706256e+02
765 1 -2.85615251426621057e+02
766 1 -2.39161351159774256e+02
767 1 4.57866339397334059e+02
768 1 -2.83361225237555061e+02
769 1 -2.61666356182799802e+02
770 1 -1.52351468053487878e+02
771 1 -3.84837494669175157e+02
772 1 4.31958582700897978e+02
773 1 1.72717900625733051e+02
774 1 3.52330624788577609e+02
775 1 4.26044361592778728e+02
776 1 -3.63486016188637464e+01
777 1 -5.56665999260165592e+01
778 1 -4.46199656446486728e+01
779 1 -8.34455852278358066e+02
780 1 -2.88570125162666102e+02
781 1 1.65572924705442915e+02
782 1 6.04610844713851975e+02
783 1 8.20782418591475107e+02
784 1 4.47752197802010869e+02
785 1 8.32740749131535836e+02
786 1 3.01059293675251013e+02
787 1 6.63894792651762714e+02
788 1 2.84763904435348039e+01
789 1 -2.48160019010844167e+02
790 1 -1.68048757879595826e+02
791 1 -9.03985752988938316e+01
792 1 -3.41887814777069138e+02
793 1 -5.13724554317195611e+02
794 1 -2.18151599466490325e+02
795 1 -2.01441358979026688e+02
796 1 -1.18747987921330790e+02
797 1 1.73332820697094085e+01
798 1 1.54968899536782118e+02
799 1 8.39533035374627161e+01
800 1 -3.27164354810732164e+02
801 1 2.65949351492183609e+02
802 1 3.35450287852280269e+02
803 1 1.32008065065050459e+02
804 1 3.89821729416923233e+02
805 1 8.52597651067505922e+01
806 1 1.87117550950438414e+01
807 1 2.34465436532118190e+02
808 1 6.28500019789646984e+01
809 1 3.44880491237523358e+02
810 1 3.21566129757637725e+02
811 1 -1.89113565996131570e+03
812 1 -6.47383788844294600e+02
813 1 -4.21900638690710934e+02
814 1 5.01759738141357516e+01
815 1 -4.31877016934657377e+02
816 1 -3.20792207227531776e+02
817 1 -1.83449383464745466e+02
818 1 -7.33551918296447951e+01
819 1 -2.74979508492376510e+02
820 1 -2.93317020599867078e+02
821 1 -3.64550823123415682e+02
822 1 -8.28796448034531608e+00
823 1 -1.05503863558823255e+02
824 1 -2.30544298078450453e+02
825 1 -2.27846334217674297e+02
826 1 -2.07046846575162135e+02
827 1 4.40303246402435548e+02
828 1 -3.84760256028289476e+01
829 1 -8.08867806272664751e+01
830 1 -3.51259689957065348e+02
831 1 6.66154211341148311e+02
832 1 -5.45809378956622027e+02
833 1 -1.07983428873599330e+01
834 1 2.73950196794786905e+02
835 1 2.99068934664040171e+02
836 1 7.37225955436764139e+02
837 1 4.40915034909835981e+02
838 1 3.29884944222027059e+02
839 1 5.40721847852990294e+01
840 1 -3.17104495981642387e+01
841 1 5.66240506702740447e+01
842 1 -2.06334050622716745e+02
843 1 1.28180239160029214e+03
844 1 1.16151321665217506e+03
845 1 3.92932395969041067e+02
846 1 -2.26098502086757946e+02
847 1 -1.15909185781078762e+02
848 1 -1.04322572783223950e+03
849 1 -5.86105180371402639e+02
850 1 -6.91804508391767286e+02
851 1 -9.66049383191729589e+01
852 1 -1.39031243468409542e+02
853 1 -1.37447087535138934e+02
854 1 -8.65460491083155716e+01
855 1 -1.59331966556263950e+02
856 1 -1.26598967984135058e+02
857 1 -2.64227084269338604e+02
858 1 -2.38476706517498513e+02
859 1 -1.74243178264868192e+02
860 1 2.65857255454749463e+02
861 1 2.77445733785572486e+02
862 1 1.51973885590868917e+02
863 1 2.54354738779664245e+02
864 1 4.36406806961595464e+02
865 1 1.28518431758305638e+02
866 1 1.62719823710007305e+00
867 1 1.07611972959000013e+03
868 1 4.06607160995417985e+02
869 1 -1.05101248335249716e+03
870 1 -7.47363946333796093e+02
871 1 -1.78245956987450654e+03
872 1 -2.67499464939821394e+02
873 1 -4.21801321783775961e+02
874 1 -6.38675170391053584e+01
875 1 -2.52238177900784365e+02
876 1 -1.62713409749471396e+02
877 1 -1.11670246705870170e+02
878 1 -1.58752978112272444e+02
879 1 -2.40745063518808877e+02
880 1 1.36210281627819370e+02
881 1 9.40636857884786082e+01
882 1 -2.01514961089349669e+02
883 1 -2.05906649248941932e+02
884 1 -1.63144920814596531e+02
885 1 -8.02728777542849912e+01
886 1 -3.28071094361679968e+02
887 1 -3.62729172540702393e+02
888 1 7.03996748619646382e+02
889 1 -3.35644004862876159e+02
890 1 -6.82535781180031904e+01
891 1 2.55380536767523608e+02
892 1 2.81304018988557118e+02
893 1 9.91848962324702597e+02
894 1 1.46493805145864656e+02
895 1 -3.00284487511695204e+02
896 1 2.24159520361964951e+02
897 1 1.46939642990140186e+02
898 1 -3.57222836012721359e+02
899 1 -7.17150029059362426e-01
900 1 1.40914223604691898e+02
901 1 -1.60724979129791194e+02
902 1 -1.48222022246907471e+02
903 1 7.26960185734464858e+02
904 1 6.79405524112255080e+02
905 1 2.91100232534793804e+02
906 1 -1.59911842774345047e+02
907 1 -1.66562849178209513e+03
908 1 -8.77107557662529757e+02
909 1 -3.98803932737270600e+02
910 1 4.81631386445137196e+02
911 1 -4.90848691641662640e+02
912 1 7.10723890604899822e+01
913 1 -1.08965849383663596e+02
914 1 -6.19213576910855892e+01
915 1 -5.41362367428452671e+02
916 1 -3.13368066192086815e+02
917 1 -4.03848756920126448e+02
918 1 2.99362757195331881e+02
919 1 -1.09896762124824591e+02
920 1 -1.43391950184780285e+02
921 1 -7.10798581742206323e+01
922 1 -3.43479842119595958e+02
923 1 -1.47963049669150848e+02
924 1 -1.21943542029634705e+03
925 1 1.99497793715112493e+02
926 1 2.24769990626291928e+02
927 1 2.34438208375204965e+02
928 1 2.03981537293274783e+02
929 1 2.47252687702759715e+02
930 1 2.19950005101535055e+02
931 1 2.84131165632751731e+02
932 1 1.11798331131483835e+02
933 1 -1.90262753553998043e+00
934 1 5.70740496142924599e+02
935 1 2.77057485099771611e+02
936 1 2.43246385439774258e+02
937 1 2.61766662091170531e+02
938 1 -2.15862480446996045e+02
939 1 -4.81955860928500670e+02
940 1 -6.75477295455166882e+01
941 1 -1.01506278060937930e+02
942 1 -1.45826734724148338e+02
943 1 -1.61722001369567465e+02
944 1 -1.20919467170736397e+02
945 1 -1.04153507050395461e+02
946 1 1.04211538780645974e+01
947 1 2.71935023118313268e+02
948 1 -1.75735761237215996e+02
949 1 -4.25254502879443521e+01
950 1 -1.55552742018542318e+02
951 1 -1.79100953836798368e+02
952 1 -1.62876612562757771e+02
953 1 2.19689998082480855e+02
954 1 2.30187571448406430e+02
955 1 -1.78725610202666974e-01
956 1 -5.92030572986957509e+02
957 1 2.01325039553154824e+02
958 1 -6.06156848045723564e+02
959 1 1.88633284169256456e+02
960 1 -7.16190384797472124e+00
961 1 1.79638378735858339e+02
962 1 -1.24802946471701759e+02
963 1 -1.26841250343265173e+02
964 1 5.29239158809996979e+02
965 1 4.00267743700211724e+02
966 1 -1.37687502827312329e+02
967 1 -1.07176373867472108e+02
968 1 3.56601904280709618e+02
969 1 5.51837887839093696e+02
970 1 1.64322975077799320e+01
971 1 -7.47826436492549078e+02
972 1 -4.91442457315929914e+02
973 1 -3.37657258544642502e+02
974 1 3.52963198027897647e+02
975 1 4.87108339206692051e+02
976 1 -7.06467759686523777e+01
977 1 -1.12937399388332878e+02
978 1 -8.13382253037456451e+01
979 1 -1.43101758863942109e+03
980 1 -9.50279640587896893e+02
981 1 -5.43401422846978676e+02
982 1 -6.93489132316619703e+02
983 1 2.98973914540350734e+02
984 1 -1.62167373012690945e+02
985 1 1.84190250982840951e+01
986 1 -4.91236960930576458e+01
987 1 -1.00216393792752385e+02
988 1 1.31779586881751271e+02
989 1 -2.71682432542805873e+03
990 1 2.49805497499575068e+02
991 1 4.90462637538735464e+02
992 1 1.33802704279440462e+02
993 1 -7.35199451682167222e+01
994 1 -9.79960649659973683e+02
995 1 -2.26242282589222577e+03
996 1 2.64294682710930772e+02
997 1 1.95259723868269191e+02
998 1 1.53660303406095551e+02
999 1 1.80556200612604584e+02
1000 1 1.97813368669887524e+02
1001 1 2.25828020058037851e+02
1002 1 2.44909391243192886e+02
1003 1 2.14467534567678598e+02
1004 1 1.23573307437311499e+02
1005 1 -4.15249437159396564e+01
1006 1 -1.69574504588730093e+02
1007 1 3.69126796241497459e+01
1008 1 1.47826876733432897e+02
1009 1 1.93527600905685659e+02
1010 1 1.22317502551676807e+01
1011 1 3.91215276343735354e+02
1012 1 -1.18127679070732498e+02
1013 1 -1.24027212462570830e+02
1014 1 -7.41297188444473534e+01
1015 1 9.78011005243331510e+01
1016 1 -1.67326283786568212e+02
1017 1 -2.28956912245338088e+02
1018 1 -3.70837940988406501e+02
1019 1 2.56476812643830556e+02
1020 1 -7.00682957895762684e+01
1021 1 -1.30117973483082750e+02
1022 1 -1.48844605305424949e+02
1023 1 -2.35322943109091682e+02
1024 1 -1.96724672681048958e+02
1025 1 -1.62683030789799716e+02
1026 1 1.22433196073617850e+02
1027 1 1.52495134623493243e+02
1028 1 -1.22729546247071369e+02
1029 1 4.73432091317540028e+02
1030 1 -3.40756258121468960e+01
1031 1 1.81051287051761193e+02
1032 1 -6.66569498212195867e+02
1033 1 5.35831543654521397e+02
1034 1 2.27239469265940016e+02
1035 1 -1.40337314837562730e+02
1036 1 -1.51023522247268517e+02
1037 1 1.11228106639506834e+02
1038 1 2.12040409971343621e+02
1039 1 3.60951828911752898e+02
1040 1 2.33095902315204540e+02
1041 1 4.95985388859206324e+01
1042 1 -2.64188459725147595e+02
1043 1 -1.11634632298156546e+02
1044 1 3.03683187155840280e+01
1045 1 5.86600298370084147e+02
1046 1 4.03850070719090468e+02
1047 1 2.41737072392277469e+02
1048 1 2.13583703819079659e+02
1049 1 -1.37579926634520376e+02
1050 1 -1.17316414795666560e+02
1051 1 -9.62792873756818040e+02
1052 1 -9.40028987397867922e+02
1053 1 -7.61917550189868962e+02
1054 1 2.36410424199970208e+02
1055 1 1.43403467163049243e+02
1056 1 5.99985308821624983e+01
1057 1 -1.69415406822879021e+02
1058 1 -2.03130590265674243e+02
1059 1 -1.83298398150204036e+02
1060 1 2.90720606363752040e+02
1061 1 -1.99572643403565422e+02
1062 1 -1.98511133486055428e+02
1063 1 7.59180352259287474e+02
1064 1 -3.30442498905189359e+03
1065 1 2.97886762644100827e+02
1066 1 1.04702726068932733e+02
1067 1 7.23754094098078014e+01
1068 1 7.12188625948997242e+02
1069 1 -1.57381918807601949e+02
1070 1 -1.85648687163473460e+03
1071 1 -1.06208043881916069e+03
1072 1 2.50940838802112296e+02
1073 1 2.65243098395278309e+02
1074 1 1.03143757618275743e+02
1075 1 1.17018547248485817e+02
1076 1 1.66299402880435281e+02
1077 1 1.40166294026455205e+02
1078 1 1.62008984581192919e+02
1079 1 2.29326589985926546e+02
1080 1 2.45007676859848175e+02
1081 1 -2.53975164532755571e+01
1082 1 -3.21104077040211905e+02
1083 1 -1.81502792444076618e+02
1084 1 2.50722078025989070e+00
1085 1 1.20556244205165271e+02
1086 1 -1.17194888595951937e+02
1087 1 1.73774265721225134e+02
1088 1 1.77915735941640196e+03
1089 1 4.07616795755264363e+01
1090 1 -8.75514049032223767e+01
1091 1 2.32481215652791775e+01
1092 1 -2.77349865363359882e+01
1093 1 -3.72171461638783825e+01
1094 1 -8.34090177182859236e+01
1095 1 -3.64163121595428606e+02
1096 1 -5.00745420171725812e+02
1097 1 -3.31861915700360498e+02
1098 1 9.90346310806361998e+02
1099 1 2.06521117620898451e+02
1100 1 2.24394651518775117e+03
1101 1 2.74994748489954691e+03
1102 1 -1.04154281999348399e+02
1103 1 -1.32039857735532223e+02
1104 1 -2.62902959431477086e+02
1105 1 -1.63776357821378411e+02
1106 1 1.22674014208477189e+02
1107 1 1.22298888077277553e+02
1108 1 3.89601022649323625e+02
1109 1 3.89558667204243307e+02
1110 1 3.89167100411140098e+02
1111 1 1.43721560043850332e+02
1112 1 1.64065807868467999e+02
1113 1 -2.48573069479110728e+02
1114 1 -2.02605803657421802e+02
1115 1 1.25686387049927802e+02
1116 1 1.95567964439933633e+02
1117 1 1.38902592403724356e+02
1118 1 1.24640869233257249e+02
1119 1 1.46297505111067380e+02
1120 1 -1.56391307949550082e+02
1121 1 -1.25610087570964843e+01
1122 1 3.11568494041333224e+02
1123 1 -1.58157251754638565e+02
1124 1 2.47790596255685983e+02
1125 1 -8.92566052647590368e+02
1126 1 1.89350336962782904e+02
1127 1 9.47159690070379270e+01
1128 1 2.93575188481692010e+02
1129 1 1.04761538477248948e+01
1130 1 2.34274669544033117e+02
1131 1 -4.09195765967814623e+02
1132 1 -3.17100151970522859e+02
1133 1 -3.55522190363879474e+02
1134 1 -3.23262444694319754e+02
1135 1 1.04879481367063704e+02
1136 1 6.11417827931210354e+02
1137 1 1.86547114138277408e+01
1138 1 -5.07960539355525157e+02
1139 1 -7.59253420229801009e+02
1140 1 -3.56030096183650869e+02
1141 1 5.93820132409399775e+02
1142 1 1.70258622801722572e+03
1143 1 -1.66660250948147882e+03
1144 1 -2.03813751089137071e+02
1145 1 -7.24172687427178801e+01
1146 1 -2.57381798365470672e+02
1147 1 1.20807055736307893e+03
1148 1 -6.48919301654377932e+02
1149 1 -7.33058497933788658e+02
1150 1 -1.12220261397094737e+03
1151 1 2.72988030269430112e+02
1152 1 2.17021725877074942e+02
1153 1 6.65839244918976618e+01
1154 1 1.43497586159168748e+02
1155 1 1.15496961723597906e+02
1156 1 1.30250939908431832e+02
1157 1 2.74030950000660994e+02
1158 1 1.86219862746956100e+00
1159 1 -1.83851577750730399e+02
1160 1 -3.89970832580024023e+02
1161 1 -1.45587920060734206e+02
1162 1 -6.99995812159799446e-01
1163 1 8.97088475966522196e+01
1164 1 3.05787838105023923e+02
1165 1 -2.38286385828855344e+02
1166 1 1.93961537526424223e+02
1167 1 7.41271539638368267e+02
1168 1 8.12743640354837140e+01
1169 1 6.09140100755985614e+01
1170 1 1.18596088621075424e+01
1171 1 2.20854910129969824e+02
1172 1 8.09804585368670899e+01
1173 1 1.96218958479969706e+03
1174 1 -4.04596980403484963e+02
1175 1 -9.14773100201762645e+02
1176 1 -3.89710179117800237e+02
1177 1 -8.24603491017084480e+02
1178 1 1.42429260529758199e+03
1179 1 3.18558351908501754e+03
1180 1 -2.01259227766782409e+01
1181 1 -8.99356142259064626e+01
1182 1 -1.78596713708617017e+02
1183 1 1.23828287241666715e+02
1184 1 1.22045536492628131e+02
1185 1 9.75350462824317788e+01
1186 1 6.38320571676971795e+01
1187 1 3.83450966389143957e+02
1188 1 3.90120705350126116e+02
1189 1 3.90443158863831115e+02
1190 1 3.89385493751076183e+02
1191 1 -9.47969133543553255e+00
1192 1 4.51156066814839107e+02
1193 1 1.29877313100935424e+02
1194 1 4.82195993747917953e+02
1195 1 1.06580470820552947e+02
1196 1 -5.28111874598604004e+02
1197 1 -4.50306985019050217e+02
1198 1 -7.97438892835949332e+02
1199 1 -5.36749456902551401e+02
1200 1 -4.07707430750129731e+02
1201 1 8.46317015855391901e+01
1202 1 7.91683483505207164e+02
1203 1 2.75223303548044839e+02
1204 1 -4.50011052620439003e+01
1205 1 2.08171033128076139e+01
1206 1 1.01216237577829008e+03
1207 1 -6.84748408134032729e+02
1208 1 -1.66324504564708218e+03
1209 1 -9.76012234878464938e+02
1210 1 -4.67993583218607398e+02
1211 1 -7.99373554081280759e+02
1212 1 7.72616880798043297e+01
1213 1 1.18416785944459136e+02
1214 1 9.93719884096152896e+02
1215 1 -8.95716894639840689e+02
1216 1 -3.51177977341913902e+02
1217 1 -1.35296865110308829e+02
1218 1 3.68415789539767843e+02
1219 1 -6.69993112146719000e+02
1220 1 -2.93050117725642906e+02
1221 1 4.51872444977312512e+02
1222 1 -1.12520976987572908e+03
1223 1 -4.10014827023292639e+02
1224 1 -4.99940222149324995e+02
1225 1 2.23749092040300553e+02
1226 1 2.55042833240679784e+02
1227 1 3.06324488862947021e+02
1228 1 1.03191733513503223e+02
1229 1 1.79653546365129671e+02
1230 1 5.73273370432775664e+01
1231 1 1.19830462042403042e+02
1232 1 1.01279612672159146e+02
1233 1 1.22348776345008218e+02
1234 1 1.09859333936620303e+02
1235 1 3.78023133193819831e+02
1236 1 -3.32445295086458303e+00
1237 1 -1.40862546200110273e+02
1238 1 -1.51377000616413284e+02
1239 1 3.21483059923155992e+01
1240 1 4.71940157970818348e+02
1241 1 -3.38316435795393204e+02
1242 1 3.21369800376832700e+02
1243 1 5.32258174958456152e+02
1244 1 2.61747378528243530e+02
1245 1 1.05496015507345092e+02
1246 1 1.40711601532382531e+02
1247 1 3.04101947481421803e+02
1248 1 2.08907262070541577e+02
1249 1 1.32930656747936564e+03
1250 1 1.66486405156773526e+03
1251 1 8.48829397508543593e+02
1252 1 -3.34394998046237447e+02
1253 1 1.55982466473016160e+02
1254 1 1.40235375206381968e+03
1255 1 9.76625480690174072e+02
1256 1 3.39221942555071337e+02
1257 1 2.70314688298004342e+02
1258 1 1.24267386745994912e+02
1259 1 9.76273339780430263e+01
1260 1 -1.33145892388794671e+01
1261 1 -3.67516472463214967e+01
1262 1 1.22698408006545449e+02
1263 1 1.21235772031020730e+02
1264 1 7.19475981232752844e+01
1265 1 2.77713034032123964e+01
1266 1 3.65266484001685058e+02
1267 1 4.46994621284109201e+02
1268 1 3.88581218379260520e+02
1269 1 3.97107695009223505e+02
1270 1 3.91828322726893191e+02
1271 1 3.85699670884718728e+02
1272 1 -4.14345069094938339e+01
1273 1 -1.01221701458029134e+01
1274 1 -3.75148023527731709e+02
1275 1 -1.77087637312264312e+00
1276 1 6.33959385350161142e+02
1277 1 -1.03763598796760721e+03
1278 1 -8.26424782025155878e+02
1279 1 4.27836625561281849e+01
1280 1 5.08786152980868565e+01
1281 1 -1.07616560909917652e+02
1282 1 6.33544912889279203e+02
1283 1 -4.77523093011233755e+02
1284 1 -5.84081986201369432e+01
1285 1 6.24329446272077533e+01
1286 1 -1.10474673640503624e+02
1287 1 -4.30852870735345803e+01
1288 1 9.19769015361099207e+01
1289 1 -5.54241885696257341e+01
1290 1 4.42695875451831228e+02
1291 1 5.34903029377771873e+02
1292 1 -7.49395092010825806e+02
1293 1 -1.21912270872337945e+03
1294 1 3.52849985651610538e+01
1295 1 4.22280271154852414e+02
1296 1 -3.24053727123102760e+02
1297 1 3.21229610736979907e+02
1298 1 -2.14145463773292840e+03
1299 1 -1.76804243116375005e+02
1300 1 -1.37953912269468702e+02
1301 1 -1.03214937295194218e+02
1302 1 2.44260524750542316e+02
1303 1 3.51336563557702448e+02
1304 1 1.30560110885078984e+02
1305 1 1.87480129783822662e+02
1306 1 2.10132823594080207e+02
1307 1 -1.65267131226169397e+02
1308 1 1.46179994734038274e+02
1309 1 8.82681266977815113e+01
1310 1 1.26338879990461606e+02
1311 1 5.57524095040062889e+02
1312 1 1.32822304234531543e+02
1313 1 4.69595444425120974e+01
1314 1 1.52767068996372529e+02
1315 1 7.23777126950699085e+02
1316 1 -4.62161482943524049e+02
1317 1 4.07802668569605487e+02
1318 1 1.61092882076538899e+02
1319 1 3.57985951138082839e+02
1320 1 2.22544513709173430e+02
1321 1 2.47964291353268834e+02
1322 1 2.98882398935487629e+02
1323 1 4.95709952811536141e+01
1324 1 4.16568528879227983e+02
1325 1 4.63017202649356761e+02
1326 1 8.87122658436632378e+02
1327 1 5.56801345161515684e+01
1328 1 4.65145419474165521e+02
1329 1 5.31731208541252045e+02
1330 1 5.08328465125311538e+02
1331 1 3.82066185890607812e+02
1332 1 3.12962131971332326e+02
1333 1 2.04697276234639730e+02
1334 1 9.88138810043168974e+01
1335 1 1.28094466292651191e+02
1336 1 4.05003874832827307e+02
1337 1 9.82721371589711055e+01
1338 1 1.18916942774637590e+02
1339 1 4.46955467379316573e+01
1340 1 -1.08390043459015839e+01
1341 1 5.07618747643592030e+02
1342 1 5.13421858032467753e+02
1343 1 4.16409049640232354e+02
1344 1 4.54430804177428456e+02
1345 1 3.75912528855314235e+02
1346 1 3.95000395295236160e+02
1347 1 -6.90153868557405445e+01
1348 1 -5.34705472202126799e+01
1349 1 -5.05428891749388072e+01
1350 1 2.31620214559278281e+02
1351 1 -2.18406066378753991e+02
1352 1 3.04349546199178235e+02
1353 1 -4.11810334610214682e+02
1354 1 7.73999175691862149e+01
1355 1 5.77911501897661495e+01
1356 1 5.93720288970778540e+01
1357 1 2.02162661865648289e+02
1358 1 2.60528860544895451e+02
1359 1 5.48145882771093852e+02
1360 1 -8.08034795512098640e+02
1361 1 -1.93872161903785218e+03
1362 1 -1.18469138208955565e+03
1363 1 2.27394763653461411e+02
1364 1 8.49681844419196608e+01
1365 1 -4.96789732925127623e+02
1366 1 8.22257366917617247e+01
1367 1 1.34238012775565096e+02
1368 1 1.57431560421085635e+02
1369 1 4.56032637220347112e+02
1370 1 2.45500323159832959e+02
1371 1 2.75447056918553585e+02
1372 1 2.31486179073968032e+02
1373 1 9.65290595472555083e+02
1374 1 2.38125350939053533e+01
1375 1 1.82712112820034264e+02
1376 1 9.33198196160893986e+02
1377 1 5.96048183029302550e+02
1378 1 -6.94656289497315100e+01
1379 1 -2.07673728365993298e+02
1380 1 3.01144435708892274e+02
1381 1 7.28846751788884262e+02
1382 1 -5.27013357019823047e+02
1383 1 -2.63854314847533715e+02
1384 1 4.20993853226106239e+02
1385 1 1.08631786827046497e+02
1386 1 3.60596782432105201e+01
1387 1 1.63245781145272915e+01
1388 1 3.45693725318876886e+02
1389 1 2.69759518754250848e+02
1390 1 2.95741992896189061e+02
1391 1 -2.94238350448052984e+02
1392 1 -2.37241776357075151e+00
1393 1 1.56688206739536184e+02
1394 1 1.85445243318543390e+02
1395 1 1.96602147658386258e+02
1396 1 2.85373591942448286e+02
1397 1 2.81162648820313848e+02
1398 1 2.84483899503095188e+02
1399 1 2.07074588065210548e+02
1400 1 3.69037792846513639e+02
1401 1 4.61585694986092562e+02
1402 1 1.19381287176289064e+02
1403 1 9.65123902306749244e+01
1404 1 3.64478168911742486e+01
1405 1 -3.91430508957512373e+01
1406 1 6.12005830502652316e+02
1407 1 5.78219371027824423e+02
1408 1 5.71789212520954834e+02
1409 1 4.90025177028688233e+02
1410 1 1.53198763660297828e+02
1411 1 4.35843735185539913e+02
1412 1 3.51870035419773785e+02
1413 1 3.80269738693868078e+02
1414 1 -9.04722199237509130e+01
1415 1 -8.13690868008539496e+01
1416 1 -8.30140299583942181e+01
1417 1 3.65863803255008577e+02
1418 1 9.68891500296526118e+01
1419 1 2.08930175429446223e+02
1420 1 -2.02922332305338955e+02
1421 1 8.99090679144537290e+01
1422 1 1.86316335557857599e+02
1423 1 5.72237260871117428e+02
1424 1 2.80057740652865618e+02
1425 1 3.68632126344724156e+02
1426 1 8.87960066226855673e+01
1427 1 4.64624332577831524e+02
1428 1 -7.67907575104485545e+02
1429 1 -7.51683071225449339e+02
1430 1 1.80435654098082274e+01
1431 1 -2.87143648618244129e+02
1432 1 3.14812309908670102e+02
1433 1 4.08975220703558534e+02
1434 1 3.84579415339458308e+02
1435 1 3.78062019393206128e+02
1436 1 1.36792693786593958e+02
1437 1 3.82049583955804337e+02
1438 1 1.59954700664539786e+02
1439 1 9.38539467553778195e+02
1440 1 1.46090984331328809e+03
1441 1 2.89089037644474217e+02
1442 1 3.17046413814836455e+02
1443 1 9.75272338349317010e+02
1444 1 2.29773078266709172e+03
1445 1 5.60247287528334482e+02
1446 1 -1.05092932300147396e+02
1447 1 1.71824273616134803e+02
1448 1 -6.93601851112669032e-01
1449 1 -4.86965472055174686e+01
1450 1 7.38929361749973395e+02
1451 1 5.86653160124785927e+02
1452 1 -2.33962478812364822e+02
1453 1 5.14801209538849662e+02
1454 1 5.66921839212591976e+02
1455 1 6.87933753650799758e+02
1456 1 -3.30927931556279418e+02
1457 1 -4.63806030190613967e+02
1458 1 -5.39890375197154739e+01
1459 1 3.72486734238348049e+02
1460 1 7.03979078042744266e+00
1461 1 -5.34812329467109677e+01
1462 1 -1.21601763661628127e+02
1463 1 -3.35655410888638983e+02
1464 1 3.21202167354427502e+02
1465 1 2.84636791862076279e+02
1466 1 2.96873874552509676e+02
1467 1 -4.44932508807486329e+02
1468 1 -6.84617847402681718e+02
1469 1 -4.39032269705777878e+02
1470 1 1.41733907785787085e+01
1471 1 2.71498915134188735e+02
1472 1 2.75640374625356344e+02
1473 1 3.09861481536762255e+02
1474 1 3.10090049630625117e+02
1475 1 3.86413596804097324e+02
1476 1 4.75954566938198752e+02
1477 1 1.01568580654898241e+02
1478 1 -9.17868664944737134e+01
1479 1 2.64979352428652497e+01
1480 1 -3.59660634248833446e+01
1481 1 7.51931639111639925e+02
1482 1 7.81337041764092419e+02
1483 1 1.05083284629157242e+03
1484 1 5.17096082230758952e+02
1485 1 2.25256379392673693e+02
1486 1 1.50314800490061941e+02
1487 1 3.65091215196149221e+02
1488 1 3.23112342372864418e+02
1489 1 4.56776203917452790e+02
1490 1 -1.05200755605355326e+02
1491 1 -1.01406073574829662e+02
1492 1 -1.17423359449480600e+02
1493 1 -1.26749556627553133e+02
1494 1 -1.20672184472138937e+02
1495 1 -1.25888238407581412e+02
1496 1 4.25721658430676825e+02
1497 1 -1.24718147223688600e+01
1498 1 4.21236292838920463e+02
1499 1 -5.12475032553607775e+02
1500 1 -1.90452257397637425e+02
1501 1 -3.70661389603228997e+02
1502 1 -4.90814353855146010e+02
1503 1 -1.49887383430659185e+02
1504 1 8.96169491648877070e+00
1505 1 5.34546527660770607e+02
1506 1 6.56483708140116960e+02
1507 1 -4.40068778095406572e+02
1508 1 -1.83235302081754497e+02
1509 1 1.84233324328478773e+02
1510 1 -1.75215300120214437e+01
1511 1 7.79843785109274563e+02
1512 1 6.10082958377098066e+02
1513 1 8.18299550782695746e+02
1514 1 3.17015083565305474e+02
1515 1 4.42681881599437872e+02
1516 1 6.31844591213763124e+02
1517 1 -9.44851270717201004e+01
1518 1 6.19487122789888986e+02
1519 1 -2.51840948786969051e+02
1520 1 -2.81995329029813718e+02
1521 1 -7.43006766291387180e+02
1522 1 -7.39091873898791960e+02
1523 1 9.04615561484586010e+02
1524 1 1.45200831399678123e+02
1525 1 -4.16266718203619916e+01
1526 1 1.03844833280539888e+03
1527 1 1.05377241308641351e+03
1528 1 -7.50927634326791065e+01
1529 1 3.62084181503750244e+02
1530 1 4.38630450910092350e+02
1531 1 4.77536963500678780e+02
1532 1 -6.37726740937062786e+01
1533 1 4.63784435914432649e+01
1534 1 -1.51718283339782573e+02
1535 1 -2.73417134043830686e+02
1536 1 -3.37903284700064717e+02
1537 1 -2.10888724980019816e+02
1538 1 3.13602017871315525e+02
1539 1 -8.11470819037561881e+01
1540 1 -1.09031710694008851e+02
1541 1 -1.60027360034010172e+02
1542 1 -2.92090225864480658e+02
1543 1 -4.62700093351062947e+02
1544 1 2.93754642613572287e+02
1545 1 2.89355059586465245e+02
1546 1 -9.10518553698183496e+02
1547 1 -1.06855404156805776e+03
1548 1 -1.18474146337612251e+03
1549 1 -7.51552691602719165e+02
1550 1 2.64061258293661012e+02
1551 1 4.38521736383145651e+02
1552 1 3.57385880836568958e+02
1553 1 2.33688249863400955e+02
1554 1 3.53809680762975454e+00
1555 1 2.54845688391672269e+02
1556 1 4.18838960956628341e+01
1557 1 -1.19614309689240514e+02
1558 1 -7.50134289143381210e+01
1559 1 -1.63767477617623769e+02
1560 1 1.51456510886337969e+03
1561 1 9.91187704113409268e+02
1562 1 1.23433604175272967e+03
1563 1 7.98854482212988273e+02
1564 1 5.02437174464035593e+02
1565 1 5.57320195637871166e+02
1566 1 7.95357008938338367e+02
1567 1 3.61840798455687889e+02
1568 1 2.19165042366154353e+02
1569 1 4.08524284149583423e+02
1570 1 1.45545345976262155e+02
1571 1 -1.16241827143074321e+01
1572 1 -1.26656214746350372e+02
1573 1 -1.18207332266591919e+02
1574 1 -1.49063034359685730e+02
1575 1 -1.32660052519177896e+02
1576 1 -1.30063107797595933e+02
1577 1 -2.56335183420763599e+02
1578 1 -3.36990394886082072e+02
1579 1 7.30436482813038651e+02
1580 1 -2.06513011524084686e+03
1581 1 -9.32527112274324622e+02
1582 1 -4.64066353684223486e+02
1583 1 4.48427726199609992e+02
1584 1 1.41949073720904698e+03
1585 1 2.19674546334503020e+02
1586 1 3.96104625612279733e+02
1587 1 5.77549379217616547e+02
1588 1 9.19311700903738370e+02
1589 1 -1.17531775531625229e+02
1590 1 -9.90639287423162159e+02
1591 1 -4.74572566558083295e+01
1592 1 -7.67164027922931950e+02
1593 1 -5.30497254942151812e+02
1594 1 3.06203368289120249e+02
1595 1 3.03805121461552574e+02
1596 1 9.42000515601739266e+02
1597 1 9.88376574996922386e+02
1598 1 1.61827277377386906e+02
1599 1 1.41571096680518349e+03
1600 1 -4.07838441589272293e+02
1601 1 1.79035144803802133e+01
1602 1 3.36153949586008025e+02
1603 1 2.35367759751577893e+02
1604 1 -3.21360524630929660e+02
1605 1 -3.39763539846374556e+02
1606 1 2.02182968354196674e+02
1607 1 2.66125204950360853e+02
1608 1 -7.96026551892623502e+01
1609 1 1.20382904769714315e+02
1610 1 -1.72514555288888971e+02
1611 1 -7.37893124752426104e+01
1612 1 -1.59928417866202494e+02
1613 1 -1.93347785930389023e+02
1614 1 -9.44113082715518317e+02
1615 1 -3.21172994674640051e+02
1616 1 2.79758900937063004e+02
1617 1 -1.60949998317145827e+02
1618 1 -2.32974342745889601e+02
1619 1 -3.12459663487891305e+02
1620 1 -3.14200209374776364e+02
1621 1 2.69607266219580879e+02
1622 1 -1.38648754610093670e+03
1623 1 -1.47741643543902865e+03
1624 1 -1.56092617267557102e+03
1625 1 -2.92209678770628534e+03
1626 1 8.49578891999192365e+02
1627 1 -2.35012466699037333e+02
1628 1 -2.40678523967304699e+02
1629 1 -4.80766677513996626e+02
1630 1 -1.35024731365639894e+02
1631 1 1.39020411539174688e+02
1632 1 -1.89513091213287396e+02
1633 1 -1.80543673428040279e+02
1634 1 -2.25495711054741264e+02
1635 1 -1.81668641148918255e+02
1636 1 -1.30204826788414778e+02
1637 1 -1.97434429371652953e+02
1638 1 -2.74016459454814424e+02
1639 1 2.66655518220054603e+02
1640 1 1.30141932119275521e+03
1641 1 8.53010472592203882e+02
1642 1 4.89117406698344098e+02
1643 1 5.00960079198409744e+02
1644 1 3.01625301041008186e+02
1645 1 3.46575423720441691e+01
1646 1 -1.46842220151946691e+02
1647 1 -1.44827485924038598e+02
1648 1 -1.34101573695055379e+02
1649 1 -1.29752961157065499e+02
1650 1 -3.30023249889890167e+02
1651 1 -1.07800514295897028e+03
1652 1 1.18793174015472218e+02
1653 1 -1.40343483384939930e+02
1654 1 1.03734015360668559e+03
1655 1 -2.38251720925756665e+01
1656 1 7.59325581707675383e+02
1657 1 -5.81624178586326366e+02
1658 1 -5.11124695393556010e+02
1659 1 -2.49149225514727590e+02
1660 1 2.51090310325061864e+02
1661 1 2.59970635410702528e+02
1662 1 7.41690254924062060e+01
1663 1 7.70214234547556543e+02
1664 1 6.49314720433037337e+02
1665 1 -7.03082745228016506e+02
1666 1 2.11905714024234015e+01
1667 1 1.26666413078477717e+02
1668 1 2.45862412639538178e+02
1669 1 1.16440546822313014e+01
1670 1 1.62163810748656317e+02
1671 1 -2.57271271436609261e+01
1672 1 4.33611424588436734e+01
1673 1 -1.85254900461896028e+02
1674 1 -2.74482773067102528e+02
1675 1 3.91235898415204531e+02
1676 1 5.37843286264199151e+02
1677 1 5.00775134277616360e+02
1678 1 2.50779538732143777e+02
1679 1 -1.20532157087469855e+02
1680 1 -6.38122075679300238e+01
1681 1 -3.30959504348364106e+01
1682 1 -1.39478542904046185e+03
1683 1 -3.16877322542330944e+02
1684 1 -3.08711742411847524e+02
1685 1 -3.10455037002359859e+02
1686 1 2.67357284619045515e+02
1687 1 -2.95374412032298380e+02
1688 1 -1.69370956813280912e+02
1689 1 -2.50240557862279303e+02
1690 1 2.37208071769065555e+02
1691 1 -1.45198589669767080e+03
1692 1 -1.48898269332909581e+03
1693 1 -1.96648065146646468e+03
1694 1 -8.77523145641486394e+02
1695 1 -2.95752137803269034e+03
1696 1 -9.33534068866826146e+02
1697 1 -5.01058912927242147e+02
1698 1 -2.23029402773016471e+02
1699 1 -2.70863478880868911e+02
1700 1 2.26719342173503726e+01
1701 1 -7.88566690814418223e+01
1702 1 -3.11957943594979810e+01
1703 1 -1.97918335747035286e+02
1704 1 -2.48723038935914218e+02
1705 1 -3.68324731025439633e+02
1706 1 -4.23079716791766032e+02
1707 1 1.22675933544036795e+02
1708 1 -3.27210089781933448e+02
1709 1 3.80891263304104768e+02
1710 1 4.74183820300292382e+02
1711 1 1.55556766833615484e+02
1712 1 -2.12727177143493094e+02
1713 1 -2.03082011806131987e+02
1714 1 -1.63833757986238254e+02
1715 1 -1.78196444013124221e+02
1716 1 -1.36779404037462939e+02
1717 1 -1.24871952735269943e+02
1718 1 -1.14953585688937665e+02
1719 1 1.94106868269373280e+02
1720 1 2.01799851577574088e+02
1721 1 -2.69630418590248098e+02
1722 1 9.62859370526626321e+01
1723 1 3.68095147256604378e+02
1724 1 5.99354256365328183e+02
1725 1 5.93786603916297622e+02
1726 1 5.25208588884650794e+02
1727 1 -2.15851464940746098e+02
1728 1 -1.42797999577857553e+02
1729 1 -4.85210549880678457e+02
1730 1 3.76863982058537488e+02
1731 1 2.26097172872852326e+02
1732 1 3.45686319295776130e+01
1733 1 1.24394268630364323e+02
1734 1 1.55742112343887467e+01
1735 1 1.72496918022919090e+02
1736 1 -1.07434944148798323e+02
1737 1 -2.29055651227848301e+02
1738 1 -2.99750188279502822e+02
1739 1 2.85299908780235612e+01
1740 1 6.30852926020982181e+02
1741 1 1.16391079808510267e+03
1742 1 1.60182931971041285e+03
1743 1 3.17991445246504782e+02
1744 1 -8.22080256924101178e+01
1745 1 -1.31661306789045955e+01
1746 1 6.33289920151457409e+02
1747 1 -5.81252793322140064e+02
1748 1 -3.47252759508269946e+02
1749 1 -3.55645714887049394e+02
1750 1 -3.67052907124699857e+02
1751 1 2.33052978633157352e+02
1752 1 -3.11492333839473986e+02
1753 1 -2.44128140717384440e+02
1754 1 -1.57750042410351654e+02
1755 1 1.79978623449066788e+02
1756 1 1.37472531230113361e+02
1757 1 1.59961309069105823e+02
1758 1 1.21643376918569970e+02
1759 1 -1.23973185178060021e+03
1760 1 -1.28335711093220857e+03
1761 1 -1.59270684931730648e+03
1762 1 -7.70554403119561812e+02
1763 1 -1.39786098674798041e+03
1764 1 -4.78113439340893763e+02
1765 1 -3.46509518653894474e+02
1766 1 -1.34141857060309462e+02
1767 1 -1.86180918848160644e+02
1768 1 -1.31929593873583570e+02
1769 1 -7.03865073986505649e+01
1770 1 -3.13411419178609606e+02
1771 1 -5.59250751065340523e+02
1772 1 -9.80361404599805269e+02
1773 1 -1.37374445883595172e+02
1774 1 -2.43924917700338199e+02
1775 1 -1.82043097262436390e+02
1776 1 -1.48666796796817749e+02
1777 1 -1.49762656840291555e+02
1778 1 -1.23839489189846532e+02
1779 1 -9.92274456110556855e+01
1780 1 1.37169489812354954e+02
1781 1 5.01021623569774306e+02
1782 1 7.84618537631932440e+02
1783 1 1.36134571146704025e+03
1784 1 1.97261166597654977e+02
1785 1 6.78921631397857027e+02
1786 1 -3.88067691228419505e+02
1787 1 -1.72879390264265510e+02
1788 1 3.68853352582066918e+02
1789 1 5.31082418754998571e+02
1790 1 2.31941633649623697e+02
1791 1 1.17754215922928367e+02
1792 1 -4.52963125344569661e+01
1793 1 6.58360882052680978e+01
1794 1 1.31510697993953755e+02
1795 1 -1.47844035935832096e+02
1796 1 -2.49130066388502172e+02
1797 1 -3.64080011953446387e+02
1798 1 7.29149031826609644e+01
1799 1 7.20852557993725895e+02
1800 1 9.65824999920409596e+02
1801 1 8.68279860578158946e+02
1802 1 2.27427000416149014e+02
1803 1 2.62109730603555931e+02
1804 1 -1.45405870745796904e+01
1805 1 -3.75043510849182780e+02
1806 1 -4.18537757495284382e+02
1807 1 5.31726789879243000e+01
1808 1 -4.86392743858868243e+02
1809 1 -4.35005977780272815e+02
1810 1 -3.59729235637257830e+02
1811 1 -4.25150492234485910e+02
1812 1 1.59175365344006849e+02
1813 1 -2.92450673024188063e+02
1814 1 -2.05538973386509014e+02
1815 1 -9.45969578867838692e+01
1816 1 1.42025563837750781e+02
1817 1 1.14422378681369509e+02
1818 1 1.29621593142149521e+02
1819 1 7.22947543109209363e+01
1820 1 7.46781245067857213e+01
1821 1 7.55862669037471164e+01
1822 1 1.37069415134395562e+01
1823 1 -9.99058719364350623e+02
1824 1 -1.04078342651413186e+03
1825 1 -1.16321324961737037e+03
1826 1 -1.17043222649138647e+03
1827 1 -6.83231471650337539e+02
1828 1 -9.53237247331899766e+02
1829 1 -5.17267420956804926e+02
1830 1 -3.81372017112788853e+02
1831 1 -2.41090882479730880e+02
1832 1 -1.75563384122815364e+02
1833 1 -1.45755760620163983e+02
1834 1 -2.08158297673780766e+02
1835 1 -3.02845735332595723e+02
1836 1 -2.74680125986727091e+02
1837 1 -3.84713816296598509e+02
1838 1 -6.50671395236055446e+02
1839 1 -4.06135558598737532e+02
1840 1 -1.84489013501325417e+02
1841 1 -1.20902906185554045e+02
1842 1 -1.10555795051098258e+02
1843 1 -7.75269108574165244e+01
1844 1 3.18149134357501737e+02
1845 1 5.42581642959664009e+02
1846 1 -3.10424738752240103e+02
1847 1 -2.73472926930489393e+02
1848 1 3.59705223288725904e+02
1849 1 4.95084264670637481e+02
1850 1 2.47850779109823947e+02
1851 1 1.62661962067576724e+02
1852 1 -4.92973976651223666e+02
1853 1 1.18546591873962356e+02
1854 1 -2.32324019849451702e+01
1855 1 6.45969644796823843e+01
1856 1 6.39319237683278061e+01
1857 1 -1.63800530175522027e+02
1858 1 -3.18320334454753890e+02
1859 1 4.68732582851713460e+02
1860 1 1.06174900695226029e+02
1861 1 6.38389852757040899e+02
1862 1 5.72384887121155657e+02
1863 1 1.26671142953804775e+02
1864 1 8.29750789314854273e+01
1865 1 1.10261285277357871e+02
1866 1 9.21531074727429029e+01
1867 1 -1.63946679322234417e+02
1868 1 3.73094421912633294e+01
1869 1 -2.19321786804755135e+02
1870 1 -2.46427132889927606e+02
1871 1 5.76963498733324016e+01
1872 1 3.22094946590180996e+02
1873 1 -5.18279096230426944e+02
1874 1 -6.81744290125021394e+02
1875 1 -4.10472437666102394e+02
1876 1 -3.41131702057984739e+02
1877 1 9.47618879319265801e+01
1878 1 -2.31775118170779081e+02
1879 1 -1.35848325173788652e+02
1880 1 -2.63351393385029375e+01
1881 1 -1.72146660408619412e+00
1882 1 1.37255392479623067e-01
1883 1 1.03232160040531773e+00
1884 1 -3.26677249857094099e+00
1885 1 8.52128326709350574e+01
1886 1 1.08812822070672652e+02
1887 1 7.19183638223028936e+01
1888 1 7.73131012767982639e+01
1889 1 -4.25910343508606104e+00
1890 1 9.49230628792129494e+00
1891 1 8.76539059821246092e+00
1892 1 1.47294851636211686e+01
1893 1 -1.61431090283536889e+02
1894 1 -8.48924718226860364e+02
1895 1 -7.34663164469811136e+02
1896 1 -9.47782442575644836e+02
1897 1 -4.77353569821836118e+02
1898 1 -6.98545046617841194e+02
1899 1 -3.17824856286487886e+02
1900 1 -2.63487647870023750e+02
1901 1 -1.67576713678805078e+02
1902 1 -2.02217467611221224e+02
1903 1 -2.07992280418794707e+02
1904 1 -2.82936996359597799e+02
1905 1 -9.19638902933294418e+01
1906 1 -8.02357917511668575e+01
1907 1 -4.94401070801966966e+01
1908 1 -1.32388147223734842e+00
1909 1 -2.31089917664598289e+02
1910 1 4.21213299759695360e+02
1911 1 -2.56383656594880733e+02
1912 1 3.17273368012781646e+02
1913 1 3.67184046541049668e+02
1914 1 3.30810594675017853e+02
1915 1 2.50276830920846720e+02
1916 1 1.93563995769919899e+02
1917 1 -6.65068977934761392e+02
1918 1 -4.62996914672498690e+02
1919 1 3.93701444593407700e+02
1920 1 9.06737138857663609e+01
1921 1 1.24761132100522332e+02
1922 1 -5.50879714160941063e+01
1923 1 3.72697002518312161e+02
1924 1 -9.28168137752123812e+00
1925 1 -2.00929236966619555e+02
1926 1 -3.61057228561725822e+02
1927 1 6.76906967013605598e+00
1928 1 1.34588819134657882e+02
1929 1 4.51371450826803425e+02
1930 1 1.90767152481269591e+02
1931 1 4.25474609264938238e+02
1932 1 3.90801659194113029e+02
1933 1 3.64290855781241305e+01
1934 1 5.93954971407467198e+01
1935 1 4.56502896507877907e+01
1936 1 5.40910964858099987e+01
1937 1 4.52490935746789233e+01
1938 1 4.44478783038612679e+00
1939 1 -1.04039647226444731e+03
1940 1 -1.00235130790969390e+03
1941 1 -1.84881946638131495e+02
1942 1 -1.99670896969125778e+02
1943 1 9.35108846937852576e+01
1944 1 -1.14034392447994009e+02
1945 1 -1.80797765035752974e+02
1946 1 1.55977347849946682e+02
1947 1 2.88903721081745800e+02
1948 1 -5.58036295852090234e+02
1949 1 -2.79783303246988396e+02
1950 1 6.22241421124889271e+01
1951 1 -8.94932097967619740e+01
1952 1 1.28829019368972908e+01
1953 1 6.51144793907445489e+01
1954 1 -5.04051686705930102e+00
1955 1 1.94578555864267799e+00
1956 1 7.68211711961963886e+01
1957 1 4.50440640626092019e+01
1958 1 4.71189054723976994e+01
1959 1 6.45900786316609157e+01
1960 1 -2.96705787197208526e+00
1961 1 -4.34481404703390606e+00
1962 1 -4.13363766193037119e+00
1963 1 -4.33424747901657703e+00
1964 1 7.57570608342710017e+00
1965 1 1.98847787541783383e+01
1966 1 -1.06760655927076172e+02
1967 1 -1.42781915277716138e+02
1968 1 -1.97876606934076221e+02
1969 1 -5.63832915124609144e+02
1970 1 -7.53665703267957042e+02
1971 1 -6.56515556558608864e+02
1972 1 -7.11219852437537611e+02
1973 1 -4.69000333408940264e+02
1974 1 -3.43379903555250110e+02
1975 1 -1.28595243640910695e+02
1976 1 -4.25962115936809127e+01
1977 1 -1.11920545654798062e+02
1978 1 -8.47065600580320819e+01
1979 1 -1.44634431953325588e+01
1980 1 -2.07396399320337288e+01
1981 1 -4.49894208687007335e+00
1982 1 -4.06092787731494766e+01
1983 1 1.02258632135177372e+01
1984 1 1.37357415104470668e+01
1985 1 4.16546773304163853e+00
1986 1 3.70806688987382131e+02
1987 1 2.72969873454587798e+02
1988 1 -6.39189714964715904e+02
1989 1 3.15717461019724283e+02
1990 1 5.81099062805016473e+01
1991 1 1.93767455537258712e+02
1992 1 -1.17398032387646481e+02
1993 1 3.38034064783932536e+02
1994 1 -1.10939055104815651e+02
1995 1 -2.49649167549678424e+02
1996 1 -4.74921211877541396e+02
1997 1 -7.23675026490797677e+02
1998 1 -7.56161567334213629e+01
1999 1 3.80305621709362782e+01
2000 1 1.95746915456950575e+02
2001 1 3.33771116042639960e+02
2002 1 2.61967435853788118e+02
2003 1 -8.80078679501471356e+02
2004 1 -1.56202358074814981e+02
2005 1 2.90028533675558663e+02
2006 1 2.80978815597898972e+02
2007 1 -8.59490466497748287e+01
2008 1 -1.46908398821038180e+01
2009 1 2.49000661199624282e+01
2010 1 2.29322941971095560e+02
2011 1 3.03553185873959634e+01
2012 1 -5.94289340080536235e+01
2013 1 -3.53518032238601343e+00
2014 1 -2.12408700951118999e+03
2015 1 -1.82646321726561132e+03
2016 1 -1.44149713174444673e+03
2017 1 -1.02164346548152082e+03
2018 1 -1.75410577475784891e+02
2019 1 -1.62135950396337648e+02
2020 1 1.34652087790718866e+02
2021 1 -3.35323268867937969e+01
2022 1 -1.08129409165136721e+02
2023 1 1.54387485919174509e+02
2024 1 1.89201765679769238e+02
2025 1 -4.07603579812264627e+01
2026 1 -4.65585000109788837e+02
2027 1 -2.80378876769720421e+02
2028 1 3.42227666499406595e+01
2029 1 1.14592146318598473e+01
2030 1 7.14522687083361632e+01
2031 1 6.69817942169575886e+00
2032 1 -6.54841017016930937e+00
2033 1 4.48190746251859018e+00
2034 1 5.04362071619356129e+01
2035 1 4.39793481699071620e+01
2036 1 5.13495254855273444e+01
2037 1 5.23562847474040609e+01
2038 1 5.59812805290617064e+01
2039 1 -6.45649983026042840e+00
2040 1 -8.96162237206809742e+00
2041 1 -1.64698436955199874e+01
2042 1 -2.20045014128196881e+00
2043 1 -8.21248031776509357e+00
2044 1 -3.20105675210596274e+00
2045 1 2.62294172254535027e+01
2046 1 1.23935431607940600e+01
2047 1 2.79173932887688920e+01
2048 1 -4.07070509093470037e+01
2049 1 -1.08634564141550314e+02
2050 1 -5.39321683026630581e+01
2051 1 -1.54042523196901158e+02
2052 1 -2.19859328061851699e+02
2053 1 -5.38042568835505222e+02
2054 1 -3.79678050462323540e+02
2055 1 -4.71662763619567329e+02
2056 1 -5.84408556471471798e+02
2057 1 -5.23112829324568565e+02
2058 1 -3.61328329073502175e+02
2059 1 5.49585685878677737e+02
2060 1 3.83505054619309817e+02
2061 1 2.97360105998110271e+02
2062 1 1.54893947420841243e+02
2063 1 6.08098360404128968e+01
2064 1 1.31653018295779720e+01
2065 1 4.19956271894224301e+02
2066 1 2.00864632977065867e+02
2067 1 8.45797244743805976e+01
2068 1 8.71145853746539558e+01
2069 1 7.47682935121178787e+01
2070 1 1.90692991057505985e+01
2071 1 3.51110881313285006e+01
2072 1 3.20101593183624630e+02
2073 1 2.19288452126132853e+02
2074 1 2.61339114780220712e+02
2075 1 1.86623359793120933e+01
2076 1 -1.59190144141855097e+01
2077 1 -3.23319201376174661e+01
2078 1 -6.17680279564673995e+01
2079 1 -4.01302257073482878e+01
2080 1 -4.91432297800471858e+01
2081 1 2.91712713126530844e+02
2082 1 2.91697294934547017e+02
2083 1 2.68761157165282100e+02
2084 1 2.28942077402544783e+02
2085 1 -2.49313176514016874e+02
2086 1 2.15367095233471986e+02
2087 1 -5.47570938069237059e+02
2088 1 -3.49238307191610545e+02
2089 1 -6.78585228251813760e+02
2090 1 2.72459917256635890e+02
2091 1 2.59660459730675313e+02
2092 1 -1.18083055699035367e+03
2093 1 -9.37645276910599961e+01
2094 1 2.04747762450769585e+02
2095 1 1.69758426390015131e+02
2096 1 1.27106834658374993e+02
2097 1 -1.33219691145384985e+02
2098 1 -8.76442695770210321e+02
2099 1 -2.08561932763267180e+02
2100 1 -1.86666062303013803e+02
2101 1 -2.80339316893273121e+02
2102 1 3.04823841072159984e+00
2103 1 -1.27611304279038350e+02
2104 1 1.45130364767051816e+02
2105 1 6.34809044835259773e+00
2106 1 -7.15903501381697396e+01
2107 1 -2.99899187125254443e+01
2108 1 -1.80252240176023088e+03
2109 1 -1.03885269072161668e+03
2110 1 -6.62138798940715901e+02
2111 1 -1.45691400645781243e+02
2112 1 -1.22896452209593079e+02
2113 1 9.91351007746134769e+01
2114 1 -6.91513351251775958e+01
2115 1 2.01804633217946154e+01
2116 1 1.13510315899080013e+02
2117 1 1.27670996009742296e+02
2118 1 2.66121138616728743e+01
2119 1 1.16709042195643917e+01
2120 1 3.47889307574344500e+01
2121 1 -3.46829952099717957e+02
2122 1 -2.05397518099898690e+02
2123 1 -8.88613969179808407e+01
2124 1 2.08204920388829038e+01
2125 1 3.31254617519152106e+01
2126 1 5.70577361027720258e+01
2127 1 7.69967289255765479e+01
2128 1 6.98071930829313487e+01
2129 1 5.58247887251326347e+01
2130 1 1.33151869599103829e+01
2131 1 2.26003553033058751e+01
2132 1 3.44113197346946080e+01
2133 1 4.45645923963492194e+01
2134 1 8.10406336781253032e+01
2135 1 3.16122740302090364e+01
2136 1 -2.56743718092826221e+01
2137 1 -1.64997141675967356e+01
2138 1 6.85868177303024851e+00
2139 1 1.52512439172083414e+00
2140 1 9.91540310375527412e+00
2141 1 -5.87778375006590714e+00
2142 1 3.17546010652339419e+01
2143 1 1.75297759566235456e+01
2144 1 2.39541491123532424e+01
2145 1 1.62997029871539603e+01
2146 1 2.57525366797256900e+01
2147 1 5.22425742572297622e+01
2148 1 3.07637976878127795e+01
2149 1 -8.88831427234520817e+01
2150 1 -2.13792207436428640e+02
2151 1 -2.89009252431581388e+02
2152 1 -4.00962251812715976e+02
2153 1 -4.03660148411428509e+02
2154 1 -3.98265584262651146e+02
2155 1 -4.51807520753059634e+02
2156 1 1.05988840698059062e+03
2157 1 5.68157198816812524e+02
2158 1 1.37704410604893678e+03
2159 1 2.70637868330508240e+02
2160 1 1.76674238710569995e+02
2161 1 1.68064858977495106e+02
2162 1 9.08856451243332231e+01
2163 1 2.84283970912912253e+02
2164 1 2.35671925140573620e+02
2165 1 -5.83377377951599811e+01
2166 1 4.55898150958829689e+01
2167 1 -2.76553468887271130e+01
2168 1 -1.17164008497545737e+02
2169 1 -5.20650814113591593e+01
2170 1 -8.15274339764782212e+01
2171 1 -5.55783033394080164e+01
2172 1 -2.40128368966957805e+03
2173 1 2.90624790203043517e+02
2174 1 1.64887721423539745e+02
2175 1 2.31031245054736104e+02
2176 1 2.32927751923706751e+02
2177 1 1.47648245835652062e+02
2178 1 -2.88888081862557897e+02
2179 1 -1.48044893629709554e+03
2180 1 -2.24686335935257603e+03
2181 1 1.25821408732644372e+02
2182 1 -1.29956522325606958e+01
2183 1 9.26710618927548779e+01
2184 1 1.56588048129588429e+02
2185 1 -1.91183170780847945e+02
2186 1 -2.29644546568802525e+02
2187 1 -9.91715469068305538e+02
2188 1 7.22936004953431421e+01
2189 1 -2.56378404078835956e+02
2190 1 -6.15448502623775880e+02
2191 1 -4.51700607513115699e+02
2192 1 7.80059710397481325e+01
2193 1 1.16973689204108808e+02
2194 1 -1.38903113251538173e+02
2195 1 7.58592038488239382e+01
2196 1 5.99635775152753325e+01
2197 1 -1.01557103504003035e+01
2198 1 1.62816382562769846e+01
2199 1 -2.25477532915350196e+02
2200 1 -4.63415863253355695e+01
2201 1 -6.47218918183310507e+02
2202 1 -4.48011633233804048e+02
2203 1 -3.56450829889227691e+02
2204 1 1.01295526717557376e+01
2205 1 -1.08871937279838519e+02
2206 1 -9.05856178758870243e+01
2207 1 2.88904929206815737e+01
2208 1 6.33552396617608053e+01
2209 1 5.58231874426948451e+01
2210 1 -4.46799822438799197e+01
2211 1 9.23346873641742860e+00
2212 1 6.76198607161494465e+01
2213 1 7.81006439680815561e+01
2214 1 2.41295155463599613e+01
2215 1 6.30290511971359209e+01
2216 1 2.48466909996756868e+01
2217 1 5.27960126955315303e+01
2218 1 2.48584972288432311e+02
2219 1 2.43866043954809832e+01
2220 1 3.86629692374162914e+01
2221 1 7.42336440889080791e+01
2222 1 6.33895741349463933e+01
2223 1 1.18759390194547834e+02
2224 1 9.16618846341824138e+01
2225 1 1.34314449035706531e+02
2226 1 1.87875399101596429e+02
2227 1 1.17626960360760592e+02
2228 1 7.07802456087398042e+01
2229 1 2.57210317880184292e+01
2230 1 3.65484349149049024e+01
2231 1 -3.14503731792182464e+01
2232 1 3.06518061354597249e+00
2233 1 3.18313436892995476e+01
2234 1 5.83027799583078590e+01
2235 1 -1.94816352786580239e+02
2236 1 -1.06151459597663518e+02
2237 1 1.00229607842243187e+01
2238 1 -2.26537094516603275e+02
2239 1 -2.43048004671412116e+02
2240 1 -2.66655000844108031e+02
2241 1 4.87198239154482167e+01
2242 1 4.34989808910498027e+02
2243 1 -3.63929289472521376e+01
2244 1 2.56046437972436593e+02
2245 1 2.03564458182379894e+02
2246 1 3.19955479909450730e+02
2247 1 1.36306158650697398e+02
2248 1 -3.32450605457515209e+01
2249 1 4.06772154789388537e+02
2250 1 -2.16460413652959687e+02
2251 1 -1.39173091664913954e+02
2252 1 -8.93104909315497082e+01
2253 1 -6.60723098017167331e+02
2254 1 2.35474169470706755e+02
2255 1 8.15471188276240611e+01
2256 1 1.63613177631818388e+02
2257 1 -3.56842998836586744e+01
2258 1 -1.22331106424788032e+02
2259 1 2.27881810398015489e+02
2260 1 -4.29990273627748422e+02
2261 1 5.84054019586494292e+02
2262 1 -4.21418887609720628e+02
2263 1 -3.26144282431701868e+02
2264 1 -2.76627690123994284e+02
2265 1 -5.90813734416427110e+02
2266 1 1.48404561904499445e+02
2267 1 -4.13101410519457204e+02
2268 1 2.83550490870275134e+01
2269 1 1.49358096147953745e+02
2270 1 2.31114668629126413e+02
2271 1 -5.85918100293091015e+01
2272 1 -1.85823066659327537e+02
2273 1 1.14810010606539080e+02
2274 1 -5.33014056240350200e+01
2275 1 6.26561067488105721e+01
2276 1 -8.80329651406114948e+01
2277 1 -3.20967247602715815e+02
2278 1 1.32848474482971824e+02
2279 1 -1.03264838935625392e+02
2280 1 7.18959808636342501e+01
2281 1 -2.19422518947232646e+02
2282 1 -1.56437049309493204e+02
2283 1 1.21350833549341630e+02
2284 1 2.80222766325752985e+01
2285 1 -5.58189192089016188e+01
2286 1 -7.62208417727483010e+01
2287 1 1.25890559178505814e+01
2288 1 7.46563389227678726e+01
2289 1 7.80567131166431665e+01
2290 1 7.05558514016581029e+00
2291 1 8.94094236375053413e+01
2292 1 -2.20454821027670214e+01
2293 1 3.97244344044535111e+01
2294 1 -2.66116759255165425e+00
2295 1 4.56092408681358421e+01
2296 1 3.52597167505867674e+02
2297 1 5.63494564240441065e+01
2298 1 7.22497560265533849e+01
2299 1 2.48787982912090228e-01
2300 1 -3.01515667480349201e+01
2301 1 3.44884532800404600e+01
2302 1 3.38700613431946863e+02
2303 1 1.92529631839262301e+01
2304 1 6.71130127368374332e+01
2305 1 1.15286213211630482e+02
2306 1 9.39754840618947327e+01
2307 1 1.40243261937861007e+02
2308 1 9.35060136849054260e+01
2309 1 2.70921771459292302e+02
2310 1 2.02815442658253005e+02
2311 1 1.93016580307156090e+02
2312 1 2.67341697129983800e+02
2313 1 1.12784766530879267e+02
2314 1 1.69494173381178456e+02
2315 1 3.50323118938727248e+02
2316 1 3.61781893224596558e+02
2317 1 9.27635385884554609e+01
2318 1 5.33172388607412273e+01
2319 1 1.52802820840518461e+01
2320 1 -1.46389125118063435e+00
2321 1 4.72707344243812031e+01
2322 1 -6.82114959651248114e+01
2323 1 -2.27284637245302825e+01
2324 1 1.55724282486404260e+01
2325 1 1.11860009511802104e+02
2326 1 -9.92347074858748641e+01
2327 1 -8.19529281607360076e+01
2328 1 -1.42645428674687963e+02
2329 1 6.39850494408014185e+01
2330 1 1.04460929856049816e+02
2331 1 2.72583089347931562e+01
2332 1 2.08922555504924361e+01
2333 1 1.24236287052925036e+02
2334 1 8.30878202812803011e+01
2335 1 5.76443600237418536e+02
2336 1 2.09594231076916401e+02
2337 1 -8.66380349225550361e+01
2338 1 1.65483721189743903e+02
2339 1 -4.72449666885754652e+02
2340 1 -1.52507517891817542e+02
2341 1 5.43987048695397903e+02
2342 1 7.96828717930974051e+00
2343 1 1.74134899211759603e+02
2344 1 1.50722453589273272e+02
2345 1 9.88149039177208408e+01
2346 1 5.08337319111911867e+01
2347 1 1.30101798813862075e+02
2348 1 8.82679441439554921e+02
2349 1 2.60125541033791990e+02
2350 1 -8.83751311972846736e+01
2351 1 1.81359402547407541e+02
2352 1 1.20715807392805008e+01
2353 1 3.04842641390584561e+02
2354 1 1.23216820332098990e+02
2355 1 3.43649300550589700e+01
2356 1 -7.52390630961142080e+01
2357 1 6.43194101679522987e+01
2358 1 -1.00410178758113744e+02
2359 1 1.00286691829560823e+02
2360 1 4.20355680163926252e+02
2361 1 4.31012241449806595e+02
2362 1 5.47086321373196611e+01
2363 1 1.91200419661199817e+02
2364 1 1.97546438566172000e+01
2365 1 1.20450946325546653e+02
2366 1 -6.40836629221957423e+01
2367 1 -4.24530809600268810e+01
2368 1 -1.90467338465205032e+01
2369 1 9.95951386536649466e+01
2370 1 9.39241661558632899e+01
2371 1 8.45681981424026930e+00
2372 1 -2.42607085365803847e+01
2373 1 -4.91018153441767069e+01
2374 1 1.11388621296595900e+02
2375 1 1.34034701204853889e+02
2376 1 6.92947359514021457e+01
2377 1 4.50006639997664806e+01
2378 1 1.77962287041158788e+02
2379 1 4.76326110852279669e+02
2380 1 5.15189396872662968e+01
2381 1 1.28332405371561748e+02
2382 1 6.96811541825281182e+01
2383 1 -2.83571314230529708e+02
2384 1 -4.57545562046736478e+01
2385 1 3.96026044047626158e+02
2386 1 1.00038376610230859e+01
2387 1 1.40096297739459771e+02
2388 1 1.73546692234929566e+02
2389 1 1.71132258184041433e+02
2390 1 1.23936709717715573e+02
2391 1 6.77686602372100424e+01
2392 1 2.84790193797587960e+02
2393 1 2.18288286883154825e+02
2394 1 1.29187120328175411e+02
2395 1 2.73889854301101821e+02
2396 1 1.68283432135332930e+02
2397 1 4.45302314494073528e+02
2398 1 4.62961905027520004e+02
2399 1 1.25639730800698757e+02
2400 1 1.67542422118160516e+02
2401 1 6.27582742285904089e+01
2402 1 6.58823259339258360e+00
2403 1 3.35676680702788666e-01
2404 1 2.15846305069971542e+01
2405 1 -6.85121188867118480e+00
2406 1 -4.33082569078988442e+01
2407 1 4.37612826483240838e+01
2408 1 -6.74573171465827137e+00
2409 1 -5.15145619876873937e+01
2410 1 4.38967988261359849e+01
2411 1 2.54163165634482873e+01
2412 1 1.08567769891068437e+02
2413 1 6.53007343055957676e+01
2414 1 2.36088401955037099e+01
2415 1 1.27925019749790451e+02
2416 1 1.43128941278417216e+02
2417 1 1.70803001312454086e+02
2418 1 4.31880337594234220e+02
2419 1 1.07729345777166657e+02
2420 1 1.53461220649649135e+02
2421 1 1.59973700746308452e+02
2422 1 -9.23496947918975586e+00
2423 1 -2.99936559942635711e+02
2424 1 5.26895359874755371e+01
2425 1 -3.07473705836252350e+02
2426 1 -1.96591887268502717e+02
2427 1 -8.21933601527533853e+01
2428 1 3.19020031115016479e+02
2429 1 4.38795379794681310e+02
2430 1 1.78321864133004141e+02
2431 1 1.34657422832149450e+02
2432 1 1.31405838084429689e+02
2433 1 1.30744783262960794e+02
2434 1 8.62401972144390783e+01
2435 1 3.84197491687610182e+02
2436 1 9.20569954638092582e+01
2437 1 7.74160755392065312e+01
2438 1 3.44722899243831833e+01
2439 1 2.40368857909615059e+02
2440 1 5.61901688685591012e+02
2441 1 1.06490660881454644e+02
2442 1 1.72948327534616283e+02
2443 1 1.10219949284595884e+02
2444 1 -3.71291854203218961e+01
2445 1 -9.12725790225454325e+00
2446 1 -6.11880747963627130e+01
2447 1 -6.13217818781748960e+01
2448 1 1.19433449620516726e+02
2449 1 1.06927010848740693e+02
2450 1 2.31276772408310109e+02
2451 1 8.42246899376298984e+02
2452 1 3.43002524745462836e+01
2453 1 6.43787921520536429e+02
2454 1 1.59974912647819622e+02
2455 1 -4.47427200689660154e+01
2456 1 1.63203733077316400e+02
2457 1 -7.68109458733696044e+01
2458 1 -9.69897536049578974e+01
2459 1 2.55797962692615869e+02
2460 1 1.16987710469367983e+02
2461 1 1.08016837559352709e+02
2462 1 1.44419759978145578e+02
2463 1 8.65734123554615280e+01
2464 1 2.44656116742996204e+02
2465 1 8.81183707426621368e+02
2466 1 -4.74605197886444159e+02
2467 1 2.75955799313761872e+02
2468 1 -7.49283127127673197e+02
2469 1 -4.81690620145128321e+01
2470 1 4.07158948715865733e+02
2471 1 4.58763649498230137e+01
2472 1 -2.62589373968322306e+01
2473 1 -9.43460780031925452e+01
2474 1 2.17626479513521360e+02
2475 1 2.78275052252380476e+02
2476 1 6.90246495569164864e+01
2477 1 8.98638041822741656e+01
2478 1 4.17611822158703063e+01
2479 1 3.30401232894717566e+02
2480 1 1.37883671576058418e+02
2481 1 5.59544505039284061e+01
2482 1 3.72513150222325464e+02
2483 1 2.46476149788062486e+02
2484 1 7.03270666116396228e+02
2485 1 5.86798949961793483e+02
2486 1 -8.43339807839164735e+01
2487 1 1.32942881163060804e+02
2488 1 -2.19835863865524566e+01
2489 1 -5.77255950997933240e+01
2490 1 -3.48987516035802443e+01
2491 1 -1.13672056762097952e+02
2492 1 -4.46821861271597101e+01
2493 1 -7.16220675023991333e+01
2494 1 3.74215771579816447e+01
2495 1 -2.03472063916736055e+01
2496 1 1.79239302807845702e+00
2497 1 -1.58145804317756724e+01
2498 1 6.49778024969696588e+01
2499 1 5.23664924792301534e+01
2500 1 2.05316151699225259e+02
2501 1 1.32084678168360199e+02
2502 1 3.16683420008776352e+02
2503 1 3.16678241287541198e+02
2504 1 2.33585191841793261e+02
2505 1 3.62155702473870917e+02
2506 1 1.93157238057004406e+02
2507 1 -4.31312479870122942e+01
2508 1 -1.06290730184620131e+02
2509 1 -7.79037788578130233e+01
2510 1 -8.93375273749671450e+00
2511 1 2.73349766503110970e+02
2512 1 1.80443360412433265e+02
2513 1 1.56385302590808294e+02
2514 1 8.77175443529921921e+01
2515 1 2.41752734740387865e+02
2516 1 2.58020922837626358e+02
2517 1 3.55665369722216766e+01
2518 1 5.16973066590519252e+01
2519 1 8.84699681983285728e+01
2520 1 1.95792867644361991e+02
2521 1 1.10316249481574630e+02
2522 1 2.14203375290206877e+00
2523 1 -9.97431587963421151e+01
2524 1 -8.40567230472919249e+01
2525 1 1.01157359033664406e+02
2526 1 3.22587187053523337e+02
2527 1 1.65839547133371980e+03
2528 1 9.25589011641894331e+02
2529 1 7.65191665198624946e+01
2530 1 4.39108480771125187e+01
2531 1 -1.18513420520675368e+03
2532 1 -1.35420102365165781e+03
2533 1 5.41628771455128572e+02
2534 1 3.66927843828119023e+02
2535 1 1.72724402393073944e+02
2536 1 -8.30518234585189674e+01
2537 1 1.77422757980002928e+02
2538 1 -1.15321791367352120e+02
2539 1 -1.35611176655549798e+02
2540 1 -1.33708365427979459e+02
2541 1 3.58140604107860042e+02
2542 1 4.87472597473787118e+02
2543 1 8.30174682310664735e+01
2544 1 5.58115235425182803e+01
2545 1 2.00400500269725569e+02
2546 1 1.25730829964079362e+02
2547 1 -1.36615643849020273e+02
2548 1 2.63914686650318174e+02
2549 1 3.69520273296811638e+02
2550 1 5.07995924756425097e+02
2551 1 -5.24611248171631132e+02
2552 1 1.06060872858899961e+03
2553 1 -1.50745951998204850e+03
2554 1 1.83574069709003766e+02
2555 1 -8.63836481261393772e+01
2556 1 1.39673671713879308e+01
2557 1 -7.10824800231763021e+01
2558 1 3.61419384756807119e+02
2559 1 -1.11142118048397506e+02
2560 1 2.84530015400482398e+02
2561 1 2.71519332105699256e+01
2562 1 -1.04522462067724391e+02
2563 1 2.62715994808829578e+02
2564 1 8.85437928403421353e+01
2565 1 5.25262146953114684e+00
2566 1 -7.97525229521414580e+00
2567 1 3.73803224852655376e+02
2568 1 1.30210484526568416e+03
2569 1 5.50381318186752083e+02
2570 1 -2.14403976700689384e+02
2571 1 1.56860338058672937e+02
2572 1 -2.02164267459037433e+02
2573 1 -3.01560775705241156e+02
2574 1 -1.93856735306046062e+02
2575 1 -1.57609618253185403e+02
2576 1 -5.07421538114858350e+01
2577 1 -8.50307443630196502e+01
2578 1 -3.67647847931457576e+01
2579 1 -5.01712057241202203e+01
2580 1 5.49024527632170205e+01
2581 1 5.06049614917155353e+01
2582 1 1.81334023702879641e+01
2583 1 -1.24665555616639196e+02
2584 1 4.38080201033737069e+01
2585 1 5.52390289098244267e+01
2586 1 9.34015689770288162e+01
2587 1 9.54895882433476402e+01
2588 1 1.93913678834242035e+02
2589 1 2.99068933169484410e+02
2590 1 1.81006529646662585e+02
2591 1 2.24783207669974757e+02
2592 1 3.29687269049816450e+02
2593 1 3.97783543259647914e+01
2594 1 -2.37049331694876919e+01
2595 1 1.47258406392799817e+01
2596 1 7.47757189027542495e+01
2597 1 2.15010812396777254e+02
2598 1 2.38322987749181920e+02
2599 1 2.01909515067882040e+02
2600 1 1.52146309021102013e+02
2601 1 1.62220315210078269e+02
2602 1 1.91779712593755590e+02
2603 1 1.29940789789877954e+02
2604 1 -4.97385344109060057e+01
2605 1 -1.51881591938224346e+02
2606 1 7.08049609693273538e+01
2607 1 -2.92156909257580750e+01
2608 1 -1.10085729224986835e+02
2609 1 3.93126745497776653e+02
2610 1 -1.21936524521220960e+02
2611 1 3.56466666309826223e+01
2612 1 3.91560557360510927e+02
2613 1 8.27357514555771559e+02
2614 1 9.83007937231144098e+01
2615 1 6.97231911026877782e+01
2616 1 -1.61239762553773880e+03
2617 1 -2.87638878094661959e+03
2618 1 4.70996547577164449e+02
2619 1 4.36725657854425208e+02
2620 1 3.24291989829450472e+02
2621 1 2.49431116443015043e+02
2622 1 -1.25137952590571828e+02
2623 1 2.23627743798741335e+02
2624 1 9.73857383866654658e+01
2625 1 1.02331009289566651e+02
2626 1 2.13016289558207376e+02
2627 1 -1.31929640148698326e+02
2628 1 -2.23886110681108885e+00
2629 1 -3.50207409118578539e+02
2630 1 -6.81544566614416851e+01
2631 1 -1.67129254696499885e+02
2632 1 -1.73460486233021498e+02
2633 1 -1.54653160403780532e+02
2634 1 4.93908605384659779e+02
2635 1 -3.16799409466593943e+02
2636 1 -1.26832110496013811e+02
2637 1 -6.61141724668342192e+01
2638 1 1.51038530008584559e+02
2639 1 1.15256569906468101e+02
2640 1 -1.62797050241405827e+02
2641 1 5.93353466669511590e+02
2642 1 4.29563386694103826e+02
2643 1 -1.59536222974298926e+03
2644 1 -8.79193604213727781e+02
2645 1 -2.97053296371852730e+03
2646 1 -6.46130505076973986e+03
2647 1 -1.72199061554016417e+01
2648 1 -1.62021227824778123e+02
2649 1 -1.02103723903283679e+02
2650 1 -1.61847987123541344e+02
2651 1 -1.54600667001715863e+02
2652 1 -1.24543159635257595e+02
2653 1 3.67208729468080037e+02
2654 1 4.15933280283243278e+02
2655 1 -3.78305006822706886e+01
2656 1 -7.87134425651192373e+01
2657 1 2.30240599665747965e+01
2658 1 2.96524624764979762e+02
2659 1 -8.43856727814709160e+01
2660 1 -2.60388576212868088e+02
2661 1 -2.30907569179444394e+01
2662 1 1.22462114893580903e+02
2663 1 2.88278439682993280e+02
2664 1 -1.48497228167159676e+02
2665 1 -1.48421809579182764e+02
2666 1 -1.44366995632186871e+02
2667 1 3.99762811324585357e+02
2668 1 8.93239108783671213e+02
2669 1 -6.20032123136595828e+02
2670 1 -3.87313044621549864e+02
2671 1 -4.26476464448423201e+02
2672 1 -3.35991661572472822e+02
2673 1 -1.99301037963386648e+02
2674 1 -1.13212371050490347e+02
2675 1 -2.07117671321016417e+02
2676 1 -3.44975498233319442e+01
2677 1 5.24936699446036048e+00
2678 1 -3.85096502791995817e+02
2679 1 -1.08502708849729331e+02
2680 1 1.01273990223723715e+02
2681 1 1.06387586753747669e+02
2682 1 1.42006699763832273e+02
2683 1 9.03206057408003602e+01
2684 1 3.22166564415959300e+01
2685 1 1.53477446038849962e+02
2686 1 1.15870808283987785e+02
2687 1 1.42084503842478199e+02
2688 1 1.44728901499222417e+02
2689 1 1.51941678650654154e+02
2690 1 4.70069377780096076e+01
2691 1 2.33903293055766817e+01
2692 1 -1.68261580333189258e+01
2693 1 9.90978168757180100e+01
2694 1 5.77287778314368509e+01
2695 1 1.71774406814081914e+02
2696 1 1.40552635791169990e+02
2697 1 9.88987231584858080e+01
2698 1 1.10130843352299891e+02
2699 1 -2.85862718124834885e+02
2700 1 -1.14632256876536871e+02
2701 1 -1.61409952515991790e+02
2702 1 -6.47704714624749016e+01
2703 1 -1.04252908652378949e+02
2704 1 7.47027574239926082e+01
2705 1 -2.83428049077077640e+03
2706 1 3.29436154240190092e+02
2707 1 6.53830590846312020e+02
2708 1 5.02447846157453057e+02
2709 1 -9.64907838225211645e-01
2710 1 3.08851972988047066e+02
2711 1 2.86391258699404716e+02
2712 1 -1.63873536794655848e+02
2713 1 -1.84717953828720113e+02
2714 1 -7.43320254565174139e+01
2715 1 -5.19052662103040277e+01
2716 1 4.50210170524809428e+01
2717 1 2.39967555320246731e+02
2718 1 -1.73784746249232484e+02
2719 1 -1.98482625956978552e+02
2720 1 -2.96702922966504389e+02
2721 1 -5.59664055322923559e+02
2722 1 -5.38147262300000421e+02
2723 1 -2.61477210359107517e+02
2724 1 -2.11711704771352032e+02
2725 1 -2.12233076715422413e+02
2726 1 6.42359349200340375e+02
2727 1 4.51986040465778444e+02
2728 1 -1.73702414012853478e+03
2729 1 -4.01883494367138098e+02
2730 1 -1.79365732845655288e+02
2731 1 1.42465398736806492e+02
2732 1 1.30945575964382414e+02
2733 1 -2.18837447228813460e+02
2734 1 1.09544460440126386e+03
2735 1 3.44782112167830348e+02
2736 1 -1.29915259851767064e+03
2737 1 -3.01290722714572757e+03
2738 1 -2.16797926277297938e+03
2739 1 -1.05183695194760972e+02
2740 1 -2.13741859907477419e+02
2741 1 -2.98898870759861779e+02
2742 1 -2.36130394899892877e+02
2743 1 -1.80682166507209502e+02
2744 1 -9.23734629663768345e+01
2745 1 3.44558026342542689e+02
2746 1 3.00169869610050966e+02
2747 1 5.71094932661396584e+01
2748 1 2.22970982071612811e+00
2749 1 6.79229751782637123e+01
2750 1 8.78357164176422174e+01
2751 1 2.99017250234320159e+02
2752 1 2.97056915661158769e+02
2753 1 -4.01918340595961809e+02
2754 1 -3.00267852022137106e+02
2755 1 -5.15896188230667008e+02
2756 1 2.50955894529907198e+02
2757 1 -3.52839376302189436e+01
2758 1 -1.62718466052849493e+02
2759 1 -1.27657868269060813e+02
2760 1 -3.27809790674142221e+02
2761 1 -3.45162977626903285e+02
2762 1 2.51000990816733101e+01
2763 1 3.97473744151586317e+01
2764 1 -5.67617004700895336e+02
2765 1 -3.32828213129411154e+02
2766 1 -3.45789448527326954e+02
2767 1 -2.41853130975069718e+02
2768 1 -5.95017454934808470e+01
2769 1 -5.68405812077008044e+00
2770 1 -1.00942047320573934e+02
2771 1 -1.35275112237957046e+02
2772 1 -1.42049446000553644e+02
2773 1 4.24848251255839600e+01
2774 1 -6.05115337312035649e+02
2775 1 -3.90063086674541770e+00
2776 1 1.91028949989244055e+01
2777 1 1.81818447855510300e+02
2778 1 1.98229558861006097e+02
2779 1 2.47246508855089445e+02
2780 1 2.42611174577307850e+02
2781 1 4.29083105581771463e+02
2782 1 1.58949773066240994e+02
2783 1 1.33562491128875365e+02
2784 1 2.39670743357515988e+02
2785 1 5.25948174800983281e+01
2786 1 5.54003750104172283e+01
2787 1 -3.76020287467133798e+01
2788 1 -1.21491807839303164e+02
2789 1 5.95635513255348101e+01
2790 1 7.26594843886251311e+01
2791 1 1.08139592976670500e+02
2792 1 -3.28201108985848748e+02
2793 1 -4.61758310271724383e+02
2794 1 -2.40426887375661352e+02
2795 1 -1.76386658530357437e+02
2796 1 4.56742725495730951e+02
2797 1 2.68678956312401567e+02
2798 1 -3.44284309770079005e+02
2799 1 -1.45774177587066475e+02
2800 1 4.98891066537356025e+01
2801 1 2.15970177665369619e+02
2802 1 -3.58554877015505497e+02
2803 1 -2.07642565655962073e+02
2804 1 -9.31941105046993670e+01
2805 1 6.31026921157588774e+01
2806 1 -4.16803528370053243e+02
2807 1 -2.10745111192640536e+02
2808 1 1.36863829536821498e+02
2809 1 -4.02337052868458102e+02
2810 1 -2.48746274373448387e+02
2811 1 -4.86385861905123647e+02
2812 1 -2.33351360598779891e+01
2813 1 -6.91164663021645822e+01
2814 1 -1.02882741806852277e+03
2815 1 -3.18253419267391848e+02
2816 1 -2.58995154689091294e+02
2817 1 -2.93219031260551162e+02
2818 1 -2.65140162932471128e+02
2819 1 -3.12299458632500318e+02
2820 1 4.71626517375596904e+02
2821 1 6.75515581604429826e+02
2822 1 3.52031029354193379e+02
2823 1 -1.44462887301113778e+03
2824 1 -6.91551132358053110e+02
2825 1 -3.66808444721717876e+02
2826 1 -2.16282783858501659e+01
2827 1 1.32125207866133337e+02
2828 1 1.35749783539320134e+02
2829 1 1.23070116046822960e+02
2830 1 -2.77752010677536930e+02
2831 1 6.09900529907306236e+02
2832 1 3.79941822266054089e+02
2833 1 1.76047834086292397e+02
2834 1 -5.27398923551260879e+01
2835 1 -6.71649303922483909e+02
2836 1 -1.46833361906592108e+03
2837 1 -1.12642336032551029e+02
2838 1 -5.84598086080475241e+02
2839 1 -6.10903945045887212e+02
2840 1 8.26961846948569423e+00
2841 1 -1.84429829124502788e+02
2842 1 -7.40420208014294303e+01
2843 1 2.85949814609387033e+02
2844 1 2.87793259785435737e+02
2845 1 2.84488954936701703e+02
2846 1 1.14331026785263717e+02
2847 1 1.37997866927162931e+02
2848 1 1.07982122191920425e+02
2849 1 1.24337066383219110e+02
2850 1 1.27081634587349768e+02
2851 1 3.08422127908509083e+02
2852 1 3.09139058979760591e+02
2853 1 3.02350231428552831e+02
2854 1 -4.75624267568690698e+02
2855 1 -6.36227677466414320e+02
2856 1 -1.24081871112633564e+02
2857 1 -3.93351513841833992e+02
2858 1 -5.31143919493030467e+02
2859 1 -5.45099750423686032e+02
2860 1 -2.68968528070262721e+02
2861 1 -1.96949055366923830e+02
2862 1 -3.00351878225487667e+02
2863 1 -2.52286372605226234e+02
2864 1 -2.84078779039195695e+02
2865 1 -2.32728810308689731e+02
2866 1 -2.38773602138925639e+02
2867 1 -1.94165790561539609e+02
2868 1 -1.78254294287991087e+02
2869 1 -1.11988886670560547e+02
2870 1 7.02779293317609532e+00
2871 1 -4.53614383072769414e+01
2872 1 9.74717532033585599e+01
2873 1 -1.18409659187899751e+03
2874 1 -6.79710553889848512e+01
2875 1 3.22138408563322855e+02
2876 1 4.18157753627830971e+02
2877 1 3.46671204833280513e+02
2878 1 8.34781384901385991e+02
2879 1 6.72181303514628439e+02
2880 1 2.52902196708535996e+02
2881 1 3.93888752806641889e+02
2882 1 8.82941564661021232e+01
2883 1 -5.10324366438814252e+01
2884 1 1.49554963455048906e+00
2885 1 -1.48373343067298809e+01
2886 1 -6.68433258022241603e+02
2887 1 -1.08152309483389922e+03
2888 1 6.87082437504147236e+01
2889 1 1.27423665856437168e+02
2890 1 -3.57779793108142087e+02
2891 1 -5.39755196910429959e+02
2892 1 -4.23422143814393792e+02
2893 1 -7.06721204930364365e+02
2894 1 -1.06838810336672907e+02
2895 1 -3.95522184510648685e+02
2896 1 -3.05207767544552837e+02
2897 1 4.51500030509759938e+02
2898 1 -2.00656629512401906e+02
2899 1 5.45877423488607150e+01
2900 1 -6.23203382885084451e+01
2901 1 8.89072367005599205e+01
2902 1 2.05627566511734869e+02
2903 1 -1.63180541919396603e+02
2904 1 -7.09879775747803166e+01
2905 1 -3.99675150778251748e+02
2906 1 -3.85626765629272711e+02
2907 1 -5.15291508768137419e+02
2908 1 -3.00926045906830780e+02
2909 1 1.50979242280105638e+02
2910 1 5.39062422227347270e+02
2911 1 -2.73875548254884166e+02
2912 1 -9.74761558675319861e+02
2913 1 -3.36285149375830485e+02
2914 1 -3.11977373217718764e+02
2915 1 -3.13662893880009449e+02
2916 1 -6.61168064631482025e+02
2917 1 -4.45029574774172829e+02
2918 1 3.92240432783989604e+02
2919 1 3.01480986454272738e+02
2920 1 -7.89978516676245476e+02
2921 1 -7.83028448633750486e+02
2922 1 -3.15425300354120054e+02
2923 1 -5.64747011668642699e+02
2924 1 1.62413203360781466e+02
2925 1 3.07077072713428379e+02
2926 1 1.36214374028103134e+03
2927 1 1.34299347448589572e+02
2928 1 1.34675315263732017e+02
2929 1 -7.05188620959967807e+02
2930 1 1.81748494704678109e+02
2931 1 -3.27286500895600852e+02
2932 1 3.53061022681866007e+02
2933 1 1.93071410649420045e+02
2934 1 1.30609305757884031e+00
2935 1 1.79159219603184354e+01
2936 1 -1.99181042408536683e+02
2937 1 -4.80532677587834769e+02
2938 1 -1.37692956059688004e+03
2939 1 -1.05592955576035047e+03
2940 1 2.66457408373215578e+01
2941 1 -2.01812920671622152e+02
2942 1 2.44050261485712554e+02
2943 1 2.53235737252139842e+02
2944 1 2.78388606836630288e+02
2945 1 1.61782047646329630e+02
2946 1 2.26527768276438962e+02
2947 1 3.27885391840460784e+02
2948 1 1.68673135366313204e+02
2949 1 1.71534160973608522e+02
2950 1 1.42631445373036144e+02
2951 1 3.23363968911087738e+02
2952 1 3.27969875110045280e+02
2953 1 3.17841955421763316e+02
2954 1 -4.62518432546324334e+02
2955 1 -5.66189614803315862e+02
2956 1 -5.67963984501516165e+02
2957 1 -3.55987612878602363e+02
2958 1 -1.18012359266877320e+03
2959 1 -3.71323930823972887e+02
2960 1 -1.96372402776220667e+02
2961 1 -2.17113318365754509e+02
2962 1 -1.55330492171981462e+02
2963 1 -1.31024141802420445e+02
2964 1 -8.74377554755992179e+01
2965 1 -9.83905185705247334e+01
2966 1 -5.50521176515422965e+01
2967 1 -2.40400751758809150e+01
2968 1 -3.60856461784320217e+01
2969 1 5.37292675997512816e+01
2970 1 1.67174160680918163e+02
2971 1 -7.90184353610725680e+02
2972 1 -2.26437101894885956e+02
2973 1 -1.09213588087143254e+01
2974 1 -2.21674922527519300e+02
2975 1 6.13050018329628983e+02
2976 1 5.65676202212976818e+02
2977 1 7.62259594094896784e+02
2978 1 1.72365649376758324e+03
2979 1 6.03700059502504018e+02
2980 1 3.10416811317499707e+02
2981 1 -9.94828378989926243e+00
2982 1 1.43779098477578664e+01
2983 1 1.21354687194016492e+02
2984 1 1.58745584251921432e+01
2985 1 -7.09595655233039224e+02
2986 1 -5.43415766432461169e+02
2987 1 -7.49234900219491635e+01
2988 1 -1.59102758693063009e+02
2989 1 -3.86230671307235909e+01
2990 1 -7.69376006820642374e+02
2991 1 -1.06042778402783279e+03
2992 1 -3.22663555040886877e+02
2993 1 -7.10042173737396524e+02
2994 1 1.72812593523048179e+02
2995 1 6.58846834133961892e+01
2996 1 -7.08114642845396816e+01
2997 1 -6.74385167030039145e-01
2998 1 3.14209461304461435e+01
2999 1 -7.49235987696548591e+01
3000 1 -2.03443410101849196e+01
3001 1 -1.19254795038654788e+03
3002 1 -5.33747428310734904e+02
3003 1 2.76537168353625646e+02
3004 1 -3.51557807111563363e+02
3005 1 -5.01813257396292272e+02
3006 1 -4.98022168055336067e+02
3007 1 -1.24976164146144515e+03
3008 1 -2.19304805923696313e+03
3009 1 -2.17472253020138851e+03
3010 1 2.15881787156745844e+02
3011 1 2.63858856979148982e+02
3012 1 1.34393417982231767e+02
3013 1 1.34516675647753203e+02
3014 1 2.93373994783589410e+02
3015 1 1.70335917358260815e+02
3016 1 -7.70472351924897566e+02
3017 1 -1.74768155321384029e+02
3018 1 -1.35994146888109185e+02
3019 1 2.42885481207882378e+02
3020 1 2.36205497506430788e+02
3021 1 -4.44394968750788564e+02
3022 1 2.20146349659923743e+02
3023 1 2.03784926573573102e+02
3024 1 1.03559750498450569e+02
3025 1 -1.38879545679858740e+01
3026 1 -2.28507291514763807e+02
3027 1 -2.69258429706490233e+02
3028 1 -3.52309378499905449e+02
3029 1 -1.57941318403853484e+03
3030 1 -7.25827213849124519e+02
3031 1 -7.10489585638543417e+01
3032 1 -3.20262306137175472e+02
3033 1 2.63621616297245716e+01
3034 1 1.85724852519227085e+02
3035 1 1.07356051431018599e+02
3036 1 2.98535181757521173e+02
3037 1 2.08182867524469913e+02
3038 1 6.98468753980369570e+01
3039 1 7.80686208339647010e+02
3040 1 2.86184796752191687e+02
3041 1 5.15203986256358689e+02
3042 1 2.54362200471963604e+02
3043 1 2.09658013926616434e+02
3044 1 3.64082164522157711e+02
3045 1 4.54670579688992632e+02
3046 1 3.28756524763084656e+02
3047 1 3.26934403658453505e+02
3048 1 2.48824204447875843e+02
3049 1 3.28400340572182131e+02
3050 1 -7.88385096957167093e+01
3051 1 -3.07329487528962204e+02
3052 1 -3.14804895704845762e+02
3053 1 -5.76951726990257725e+02
3054 1 -1.72528438382288158e+02
3055 1 -1.16106137755082318e+03
3056 1 -6.89089329266387836e+02
3057 1 -1.02020923468252818e+02
3058 1 -9.21755133194615155e+01
3059 1 -3.54471307366719657e+01
3060 1 2.08514511798393265e+01
3061 1 -5.69179158496042703e+01
3062 1 -1.62826174859451775e+01
3063 1 2.18745109599866261e+01
3064 1 -1.58815128212271155e+01
3065 1 5.40714755144461847e+01
3066 1 1.21547928314905658e+01
3067 1 1.15444702376740679e+02
3068 1 -1.67224419551009333e+02
3069 1 1.51325661348442082e+02
3070 1 1.11464397491099092e+02
3071 1 3.75849500906082312e+01
3072 1 5.22632323829381903e+02
3073 1 1.24226269424425573e+03
3074 1 1.14208497818546789e+03
3075 1 1.96417231636510479e+02
3076 1 -1.55056990448041262e+02
3077 1 -3.11259082774520948e+02
3078 1 -9.48358303227706330e+01
3079 1 -3.86142781657930470e+02
3080 1 -1.18055933657326432e+03
3081 1 8.37309802335976201e+01
3082 1 -2.24719335966499507e+01
3083 1 5.59403763724184728e+02
3084 1 3.73097501599118971e+02
3085 1 1.41943336342249995e+03
3086 1 3.41318156637266981e+01
3087 1 5.71049247353018075e+01
3088 1 9.78134046812332514e+01
3089 1 -1.68833222658852901e+03
3090 1 -8.01381971681330242e+02
3091 1 -9.65165294374845502e+01
3092 1 -1.58696441372176650e+02
3093 1 -7.49005406188390168e+01
3094 1 -3.91794698742960747e+01
3095 1 -1.05787484581380198e+02
3096 1 9.21283199020266039e+01
3097 1 -1.06373852355523331e+03
3098 1 -9.66766260782979998e+02
3099 1 -1.75077589201692058e+03
3100 1 2.73062029750695217e+02
3101 1 -3.69577359343536102e+02
3102 1 1.34524525241645875e+02
3103 1 2.85219954531238272e+02
3104 1 2.81671910196162230e+02
3105 1 6.96028272685823168e+00
3106 1 7.38582998874143186e+01
3107 1 -1.01626725229085400e+03
3108 1 -3.93963951423511105e+02
3109 1 -1.99641123569114285e+02
3110 1 1.60153296799796351e+02
3111 1 3.24285566697313925e+02
3112 1 3.33754343333635632e+02
3113 1 3.30064486076222579e+02
3114 1 7.85614408946427432e+01
3115 1 2.67453961971085562e+02
3116 1 -3.64137405020537983e+02
3117 1 -5.22329006732564949e+02
3118 1 1.23228895794994770e+02
3119 1 -2.40794628463934446e+00
3120 1 -1.31602121374875310e+02
3121 1 -2.98631876439587472e+02
3122 1 -7.17334685359159380e+02
3123 1 -1.15054420905047232e+03
3124 1 -1.90884644083775640e+02
3125 1 -3.08718290734265324e+01
3126 1 9.02936755309095247e+01
3127 1 1.20349640564254543e+02
3128 1 1.30637686675979154e+02
3129 1 -3.46982469499039325e+00
3130 1 4.19051202121102563e+02
3131 1 2.00070271708991385e+02
3132 1 1.13862073078810141e+02
3133 1 1.89663650538619521e+02
3134 1 -1.42458667143794969e+02
3135 1 4.59900317036109243e+02
3136 1 -2.36596298555687326e+02
3137 1 8.68807433704013420e+02
3138 1 1.82371247703655882e+02
3139 1 3.53742939789124080e+02
3140 1 3.33083033423790255e+02
3141 1 3.25058656119978366e+02
3142 1 2.49059224031002344e+02
3143 1 2.17518941749264570e+02
3144 1 3.99779473772187714e+02
3145 1 1.56491119746316656e+02
3146 1 3.83052770773444138e+02
3147 1 3.34544736671315661e+02
3148 1 3.57239596537740738e+02
3149 1 2.84262311802425870e+02
3150 1 3.04377252014997225e+02
3151 1 1.29839146878417395e+01
3152 1 6.45159037349799007e+01
3153 1 1.47728751197130862e+02
3154 1 7.60397399291693858e+01
3155 1 -6.27893910878407908e+01
3156 1 -3.71075000954339600e+02
3157 1 -3.57936955208700965e+02
3158 1 3.21027880203006077e+02
3159 1 2.58552914157068301e+02
3160 1 4.06988143854830412e+02
3161 1 1.06723738243219145e+02
3162 1 -5.64853653151458346e+00
3163 1 -2.40503405553995764e+00
3164 1 4.73153539537049141e+01
3165 1 -4.41880963940577853e+00
3166 1 2.98279204435835723e+01
3167 1 2.03723567065192555e+01
3168 1 7.07904749596555575e+02
3169 1 2.92313070207832311e+02
3170 1 3.08406247594757474e+02
3171 1 3.43069899588551152e+02
3172 1 -2.16072212655835273e+02
3173 1 2.12776416473488240e+02
3174 1 -3.40428430597595138e+02
3175 1 -7.09568911166869611e+02
3176 1 -1.65102090227501094e+03
3177 1 -2.78106518789239635e+03
3178 1 -3.89263790507961176e+02
3179 1 -6.66234554150476470e+02
3180 1 -4.93139400872464194e+02
3181 1 -1.63439599845279008e+03
3182 1 2.40095828725242740e+02
3183 1 1.14568390605044456e+02
3184 1 1.08254954230146632e+03
3185 1 1.30657043609720091e+02
3186 1 1.66971191795228492e+02
3187 1 3.18471416862398485e+02
3188 1 -1.45599501477862145e+03
3189 1 -2.64099914516697993e+02
3190 1 -8.76441623274381811e+01
3191 1 2.02591665323397280e+02
3192 1 -8.40444765987341725e+02
3193 1 -6.83815454361213824e+02
3194 1 2.05483904499322051e+02
3195 1 -1.92436611088922263e+02
3196 1 -6.79801378143294073e+02
3197 1 -2.65699373365342979e+02
3198 1 1.41310624491177009e+02
3199 1 1.84534684665758448e+02
3200 1 3.93019292481617413e+02
3201 1 4.55577422345527680e+02
3202 1 5.03918850910266713e+02
3203 1 4.56680705064460483e+02
3204 1 1.83955795498751984e+00
3205 1 1.35648817862795070e+01
3206 1 2.60646827155415451e+02
3207 1 4.24212217434109391e+01
3208 1 -3.02474909944321553e+02
3209 1 -9.83797585959541436e+01
3210 1 -4.77952533875469896e+02
3211 1 -3.42109969854487606e+00
3212 1 -2.38499028898680365e+02
3213 1 -1.23110367273759508e+02
3214 1 -4.29019366679290954e+02
3215 1 -6.48824073324444726e+02
3216 1 -2.01150970414724441e+02
3217 1 -6.49296321690514322e+00
3218 1 2.34008732030638491e+01
3219 1 -1.98697195210462212e+02
3220 1 -3.57559835967189827e+02
3221 1 3.11625849567268972e+02
3222 1 2.40389402725886299e+02
3223 1 1.11958319566933199e+02
3224 1 4.92826582021921595e+01
3225 1 3.32435251959168099e+01
3226 1 8.38488185889175099e+01
3227 1 6.84161866162922507e+01
3228 1 -4.01705762121899170e+02
3229 1 -9.94214054711281506e+02
3230 1 -5.47503153449649290e+02
3231 1 4.78843369307432226e+02
3232 1 1.07212686546090936e+02
3233 1 4.52997019947462320e+02
3234 1 3.84751159873714130e+02
3235 1 2.52962897214756367e+02
3236 1 5.98368447282170308e+01
3237 1 -1.21783021528713476e+02
3238 1 -6.30064865231059557e+00
3239 1 5.25402915428967503e+02
3240 1 3.44088331737464955e+02
3241 1 3.05113409129269542e+02
3242 1 7.56562934562749547e+02
3243 1 1.86915446050713939e+02
3244 1 2.42851574546801487e+02
3245 1 4.85011971813456512e+02
3246 1 3.90185072524922759e+02
3247 1 1.06590933487861707e+03
3248 1 1.61187709199489996e+03
3249 1 3.14832351723058935e+02
3250 1 1.68473709086256548e+02
3251 1 8.54543302877405324e+01
3252 1 3.71913776894148100e+02
3253 1 1.18660069320887851e+03
3254 1 4.59945220286862479e+02
3255 1 1.42632009799354790e+02
3256 1 6.21458416137002814e+02
3257 1 -1.20097129302699059e+02
3258 1 -2.76736088473144406e+01
3259 1 1.48079317616141992e+01
3260 1 -5.09902568592459744e+01
3261 1 1.77783376976665136e+03
3262 1 5.28174977842428348e+02
3263 1 9.09753249427255810e+02
3264 1 6.43059729323786541e+02
3265 1 -1.33252296403778223e+03
3266 1 -1.15129255582526343e+03
3267 1 -3.62693727873185935e+03
3268 1 -5.34189559377181922e+03
3269 1 -6.37625942204255807e+02
3270 1 -4.43652717481889226e+02
3271 1 8.76789477536271306e+02
3272 1 6.18701115645211317e+01
3273 1 -2.15553285133586087e+03
3274 1 4.06418417052297684e+02
3275 1 4.03936148464920109e+02
3276 1 4.18040134433825074e+02
3277 1 -2.77937101921191470e+02
3278 1 -7.14255010262525502e+02
3279 1 1.01233685824518034e+03
3280 1 -4.27134458391392798e+02
3281 1 -2.82703020682914030e+02
3282 1 -1.18257504623907970e+01
3283 1 3.02939152779106053e+02
3284 1 2.60321196920608486e+02
3285 1 -4.60271234333507437e+02
3286 1 -4.36653844642720003e+02
3287 1 1.18201265545996733e+02
3288 1 4.95362330320624210e+02
3289 1 8.66365340843505010e+02
3290 1 -2.79472413374674716e+02
3291 1 -2.37095194432363314e+01
3292 1 1.48804745366164781e+02
3293 1 -3.82392206353075252e+01
3294 1 -1.14062260635150281e+01
3295 1 -3.22170908684625772e+02
3296 1 -7.22045681300968454e+01
3297 1 -6.65429925733596974e+02
3298 1 -1.64929556198950308e+02
3299 1 -1.18256912492171892e+02
3300 1 -4.06930546717367463e+02
3301 1 -1.11929914716358027e+02
3302 1 -2.51084951243776800e+02
3303 1 -4.02335294903004637e+02
3304 1 -9.81479585402208272e+01
3305 1 -2.30605953692750859e+02
3306 1 -1.27446564225002206e+02
3307 1 -7.71185915192488523e+01
3308 1 -1.16827306513415266e+02
3309 1 -1.13212740196041409e+03
3310 1 -1.01885205042627916e+02
3311 1 -5.42051825474173370e+02
3312 1 -5.10500244781706897e+02
3313 1 -1.26722100910842510e+01
3314 1 -3.29169651642154918e+02
3315 1 -1.16583747671649753e+01
3316 1 -2.89768447144197800e+01
3317 1 -3.88723818124948366e+01
3318 1 -9.02530895538251059e+01
3319 1 -6.21788884794999944e+02
3320 1 -5.77653455533593274e+02
3321 1 -6.35346826391782201e+02
3322 1 -1.80775815368649262e+02
3323 1 -1.04286902244522508e+02
3324 1 1.28196141462363027e+01
3325 1 1.22720385869054127e+02
3326 1 4.66634263301735530e+02
3327 1 3.66799724697947340e+02
3328 1 3.07459231027773228e+02
3329 1 -6.30478797458423855e+02
3330 1 2.20580700057973644e+02
3331 1 4.79059360589247774e+02
3332 1 3.40704886715627282e+01
3333 1 -2.22302801872719556e+02
3334 1 4.35348678427527375e+02
3335 1 -4.04507741391117690e+02
3336 1 4.19057529412814347e+02
3337 1 3.85072950407091298e+02
3338 1 6.17140337832583668e+02
3339 1 1.06535368516590665e+03
3340 1 1.75980846090025238e+02
3341 1 3.51902403706098994e+02
3342 1 6.93273353219525916e+02
3343 1 4.19916974848903237e+02
3344 1 2.58367296185177906e+02
3345 1 1.06218418559206793e+03
3346 1 1.47791745895341501e+03
3347 1 2.72163480184317132e+03
3348 1 2.42275631333623210e+02
3349 1 1.41138989372063008e+02
3350 1 2.58134785107327161e+02
3351 1 1.98793912141157307e+02
3352 1 -1.03707697644948595e+02
3353 1 4.75279552800670118e+01
3354 1 1.21029761537968710e+02
3355 1 5.52435539080669969e+02
3356 1 2.18295788009306818e+02
3357 1 3.96229125813768803e+02
3358 1 -3.82888141264830267e+02
3359 1 -1.06884011951621034e+02
3360 1 1.52940177128613777e+03
3361 1 1.33696524433245781e+03
3362 1 1.77936988166611741e+03
3363 1 6.50631428971931882e+02
3364 1 9.30050235993730894e+02
3365 1 -2.02910669153905746e+03
3366 1 -1.09767568086078768e+03
3367 1 -2.38691585084836061e+03
3368 1 -3.55501773800470687e+02
3369 1 -6.32421427335705062e+02
3370 1 -7.03764667572125632e+02
3371 1 -8.97375354230199150e+02
3372 1 4.50523554398225485e+02
3373 1 -1.42184457036361152e+02
3374 1 1.65070336413883922e+02
3375 1 5.57428358441753403e+02
3376 1 4.44557470247181129e+02
3377 1 4.27106309848522073e+02
3378 1 4.39400857986675305e+02
3379 1 -1.32073806793542303e+02
3380 1 -1.63283158176095014e+02
3381 1 1.05182824445818426e+01
3382 1 1.22516060083306058e+02
3383 1 -2.65666044317998683e+02
3384 1 1.65894641335287361e+02
3385 1 1.02206229656476935e+02
3386 1 -2.42635148622489993e+02
3387 1 -2.59882229344921825e+02
3388 1 -1.38376381140222151e+02
3389 1 -8.43111730073202068e+01
3390 1 -2.60593612959910445e+02
3391 1 -9.27848734113000404e+01
3392 1 -5.19402930074387996e+02
3393 1 -1.49248625330654477e+02
3394 1 -2.52134094944264206e+02
3395 1 -1.73674068926775391e+02
3396 1 -1.17503638392318308e+02
3397 1 -1.70449041450020530e+02
3398 1 -4.07357235853889733e+02
3399 1 -7.31020171850460656e+02
3400 1 -1.05953248008292675e+02
3401 1 -2.82003849535685902e+02
3402 1 -9.86440128361959978e+01
3403 1 -9.02595930046496733e+01
3404 1 -2.33131587269137128e+02
3405 1 -1.05570223098707388e+02
3406 1 -5.27647921414451275e+02
3407 1 -3.48321826276220236e+02
3408 1 -4.83233582206913539e+01
3409 1 1.29716385902991533e+02
3410 1 2.81107531317431167e+01
3411 1 1.84772318819184193e+02
3412 1 -7.13074359474093626e+02
3413 1 -7.69888893239275944e+02
3414 1 -8.34806086126213245e+01
3415 1 -3.26784866623325058e+02
3416 1 -1.17072590427246882e+03
3417 1 3.63764336666022757e+02
3418 1 -4.99910511168903682e+01
3419 1 -3.30765486551715128e+02
3420 1 3.36098912730599650e+01
3421 1 -7.68681886938363277e+02
3422 1 8.63851835867090045e+01
3423 1 -6.86705663652030722e+01
3424 1 3.02231165304892500e+02
3425 1 7.96123557299857794e+01
3426 1 1.05344643747119360e+01
3427 1 1.34374117708491383e+02
3428 1 7.78267124486036863e+01
3429 1 1.73302899000750045e+02
3430 1 6.28898008325974388e+02
3431 1 2.22483560765670489e+02
3432 1 8.81122668840082270e+02
3433 1 1.40849117784680152e+03
3434 1 7.35854372346100490e+02
3435 1 2.77578788324202321e+01
3436 1 -1.02160833192985180e+02
3437 1 -3.05926199014308168e+02
3438 1 -8.56687342693567473e+01
3439 1 -2.48760516097472816e+02
3440 1 -1.95020016720493530e+01
3441 1 2.67246500757850015e+02
3442 1 1.03640074103532029e+02
3443 1 1.51032409698190634e+02
3444 1 -3.99645160946272767e+02
3445 1 9.77964246441825139e+02
3446 1 1.04983153053982824e+03
3447 1 7.55606045966872102e+02
3448 1 -2.71302584314764601e+02
3449 1 -9.34093161423788615e+02
3450 1 -4.62926883549614161e+02
3451 1 -4.53917206637017046e+02
3452 1 3.76641638020978917e+02
3453 1 6.81272593141346050e+01
3454 1 4.36868940628394512e+02
3455 1 7.38501841842567757e+01
3456 1 -8.44529814485888721e+01
3457 1 -1.01619946178547309e+02
3458 1 1.54997219168982650e+01
3459 1 -1.87434552353612617e+02
3460 1 4.32108478462294414e+01
3461 1 -1.17936544916002688e+02
3462 1 -7.39940290723268816e+01
3463 1 -2.74559835646664254e+01
3464 1 -9.46782833100491871e+02
3465 1 -1.89909873174463030e+02
3466 1 -1.36410991296559416e+02
3467 1 -6.12854885054437091e+02
3468 1 -6.92665198267423676e+01
3469 1 -5.94042713940845459e+01
3470 1 -2.21074431947228248e+02
3471 1 -6.82161634361740198e+02
3472 1 -4.73331027251502690e+02
3473 1 -1.39674894394756461e+03
3474 1 -7.90644456638544966e+02
3475 1 -2.21586313394096578e+03
3476 1 -2.54796163345688313e+02
3477 1 3.20130563429947301e+02
3478 1 1.22572685649844493e+00
3479 1 -1.46760235787568888e+02
3480 1 -3.17809247923894077e+02
3481 1 -1.17404130381054301e+02
3482 1 -1.61612785997850960e+03
3483 1 -1.39534133019856796e+02
3484 1 -8.90673222258295937e+02
3485 1 -2.29045087871496293e+02
3486 1 -2.14620509679759635e+02
3487 1 -1.74752516946300233e+02
3488 1 -2.16570491951635461e+02
3489 1 2.35078966973951850e+02
3490 1 2.81816651531326102e+02
3491 1 1.22132465530758353e+02
3492 1 -3.86791753518675478e+02
3493 1 -6.71966718940058058e+02
3494 1 -9.92230530043346675e+02
3495 1 1.91029009745513491e+02
3496 1 1.34282384384678863e+02
3497 1 1.21341597543771982e+02
3498 1 5.02533664953414302e+02
3499 1 2.40060854816274514e+02
3500 1 -6.81772410025406430e+02
3501 1 -3.64313998898651789e+02
3502 1 -1.92934633252251700e+02
3503 1 1.26231294044521505e+01
3504 1 -8.95827031263543603e+01
3505 1 -4.10030943672822872e+01
3506 1 3.31370135935873122e+01
3507 1 -4.34321658493498930e+01
3508 1 -3.41419630778808710e+02
3509 1 -5.31280474576341931e+02
3510 1 3.81607510068597946e+02
3511 1 8.40436463314456859e+01
3512 1 3.26449982363724530e+02
3513 1 -1.27695533149125907e+02
3514 1 -2.75522424099415389e+02
3515 1 -3.35597146933894010e+02
3516 1 -1.79800557837981302e+02
3517 1 5.92907300664880381e+01
3518 1 -1.27861804522523741e+01
3519 1 -4.80409939363327325e+01
3520 1 -3.53975719032574432e+01
3521 1 -8.88594045064687634e+01
3522 1 8.69807592315274158e-01
3523 1 -3.80604136026604394e+01
3524 1 6.23898028410597139e+00
3525 1 -1.38167220003911524e+02
3526 1 -1.37897182828811431e+01
3527 1 -5.40478394084555475e+02
3528 1 -3.41620715642646701e+03
3529 1 -6.33320570995323465e+02
3530 1 2.93832471468372603e+02
3531 1 1.71422891166124316e+02
3532 1 3.42092165918818907e+01
3533 1 -4.66837791228203400e+02
3534 1 -7.93141295554866446e+01
3535 1 -2.61874357415706186e+02
3536 1 -1.08531951114791894e+02
3537 1 -2.65398788209243037e+02
3538 1 -3.41469162853179625e+02
3539 1 -1.31835008504919614e+02
3540 1 -3.41471404971359732e+02
3541 1 -4.98954126545251313e+02
3542 1 -2.53630014156412159e+02
3543 1 -5.06400175866423695e+02
3544 1 -9.81004815037460531e+00
3545 1 -3.03935077243709975e+03
3546 1 -1.13771227903337967e+03
3547 1 2.41427765616368475e+02
3548 1 2.69379809366882569e+02
3549 1 1.52445294554156362e+02
3550 1 -9.21091183012028409e+02
3551 1 -1.61157701267507878e+03
3552 1 2.12996300285483784e+02
3553 1 2.03925485401547604e+02
3554 1 -4.90910500620838548e+02
3555 1 -1.57355774078069857e+02
3556 1 -2.48231946918488973e+02
3557 1 -1.99726557053612765e+02
3558 1 -6.10488317411970456e+02
3559 1 -4.57505675574100792e+02
3560 1 -5.41559280469274313e+02
3561 1 -4.74502588342127922e+02
3562 1 5.15727846163093318e+02
3563 1 2.97827128057402092e+02
3564 1 -9.08382950454809816e+02
3565 1 -1.25268982210735743e+02
3566 1 1.70880871490701125e+01
3567 1 -4.39242271720003259e+02
3568 1 -8.11115021086523825e+02
3569 1 1.82042594320379365e+01
3570 1 -1.67308689231105490e+02
3571 1 -3.73071623952106904e+02
3572 1 -6.12028305085548709e+02
3573 1 -5.13657852842444598e+01
3574 1 -3.71382972449750000e+01
3575 1 -1.12021100865073095e+02
3576 1 -1.44676455796449801e+02
3577 1 -5.11919959482780840e+01
3578 1 -8.26507924609765254e+00
3579 1 -7.43664208356437495e+00
3580 1 -1.32766688725389894e+01
3581 1 1.16096264045525466e+01
3582 1 1.28057101650646601e+01
3583 1 3.24262123211228968e+01
3584 1 1.86175654518001039e+02
3585 1 2.29716273736710207e+02
3586 1 -1.70327874126563506e+03
3587 1 -1.33667364332763228e+01
3588 1 -2.12281948718437491e+02
3589 1 -1.47035258456832480e+02
3590 1 -4.46577578702144308e+02
3591 1 -2.48928142532729083e+02
3592 1 8.93169296313830756e+01
3593 1 1.09708206302906017e+01
3594 1 1.31692316718067115e+01
3595 1 -1.92417921790908437e+01
3596 1 -3.17529783107713740e+02
3597 1 3.60703530594870898e+01
3598 1 -6.73617588547480977e+02
3599 1 -2.49649393556694378e+02
3600 1 -1.74901273287505796e+03
3601 1 -2.87832542600160650e+03
3602 1 -1.41098557867356112e+03
3603 1 -8.23260974436583638e+02
3604 1 3.52550479590610564e+02
3605 1 2.54324525384017250e+02
3606 1 2.43856298384569527e+02
3607 1 2.62638446380245512e+02
3608 1 2.20214170470521907e+02
3609 1 -9.97670730823255667e+02
3610 1 2.26280227881821247e+02
3611 1 1.93114108448993960e+02
3612 1 -3.93778423445655960e+02
3613 1 4.86551432894189730e+01
3614 1 -3.94377664000931077e+02
3615 1 -1.07458578973712838e+03
3616 1 -5.31344556344589137e+02
3617 1 -3.82442650667494036e+02
3618 1 -4.54183228585503343e+02
3619 1 -3.11395778267020262e+02
3620 1 -1.35111208632523790e+03
3621 1 7.29135399344169741e+02
3622 1 3.75413822201372625e+02
3623 1 2.25552174707398336e+02
3624 1 -1.56735770060707296e+03
3625 1 -3.18272059272393335e+02
3626 1 -1.07767052255023501e+02
3627 1 -6.89488019495863568e+02
3628 1 -1.19295268821278583e+02
3629 1 3.66488839420932919e+01
3630 1 -2.69186701215445396e+02
3631 1 -1.23959543977059667e+02
3632 1 -8.04699158973124717e+00
3633 1 -1.72875380525459718e+02
3634 1 3.00232252232447046e+01
3635 1 -3.06543894485702779e+01
3636 1 -5.58955966588406952e+01
3637 1 2.11580628856724537e+01
3638 1 2.73845879512838302e+01
3639 1 4.80462395749348588e+01
3640 1 4.24296226171972179e+01
3641 1 5.16460929686610726e+01
3642 1 -6.82119563388781103e+01
3643 1 -4.46529557916389592e+02
3644 1 -8.16440529232463405e+02
3645 1 -3.40360201619593923e+01
3646 1 3.66622904730868868e+02
3647 1 5.71645352354783199e+02
3648 1 7.21609357222131507e+02
3649 1 1.47732996586910481e+01
3650 1 -2.15836626467903670e+02
3651 1 -5.57407569581945609e+02
3652 1 8.48776171728512026e+01
3653 1 -8.77151932928480733e+02
3654 1 -1.19258660084021449e+03
3655 1 -1.41120801130145560e+03
3656 1 -9.37098968748639436e+02
3657 1 7.61172419086577065e+02
3658 1 -1.27366059275476175e+02
3659 1 2.66023504244568301e+02
3660 1 2.54152694989686637e+02
3661 1 1.37083544609986319e+02
3662 1 -6.41168504761321060e+02
3663 1 2.44224447941143694e+02
3664 1 1.55339408300095641e+02
3665 1 -2.84864885171680555e+02
3666 1 2.87968075018344280e+02
3667 1 -1.64032523428117656e+02
3668 1 9.22589208847921611e+01
3669 1 4.47235070624069976e+02
3670 1 -2.22584204098889558e+02
3671 1 -7.93041023121524802e+01
3672 1 -1.46744243384852467e+02
3673 1 2.93661867796539241e+02
3674 1 -9.33007858722004926e+01
3675 1 3.39091288981927903e+02
3676 1 3.00788474698587116e+01
3677 1 -3.88315021901490297e+02
3678 1 -2.39606112531531579e+02
3679 1 6.05690064598741706e+00
3680 1 4.08305460257887134e+01
3681 1 3.98066537015091626e+01
3682 1 -5.79972010494345653e+01
3683 1 3.78319085617760607e+01
3684 1 1.27392575176366307e+01
3685 1 5.23268226909474166e+01
3686 1 1.02005418600361040e+02
3687 1 6.68520041439131774e+01
3688 1 1.16352310904761865e+02
3689 1 9.23404283400861772e+01
3690 1 6.89939815183017515e+01
3691 1 6.33228580319314318e+01
3692 1 6.59262507360326850e+01
3693 1 6.70249666593944539e+02
3694 1 1.49779795955743089e+03
3695 1 1.59449757799447661e+03
3696 1 7.45512641445750660e+02
3697 1 -1.35192052500844369e+02
3698 1 -3.86918780293042232e+02
3699 1 -3.40357784702782817e+00
3700 1 -6.19068995441942434e+02
3701 1 -7.41040447525082413e+02
3702 1 -6.77546448434621425e+02
3703 1 3.08867200859372417e+02
3704 1 2.41881927231882482e-01
3705 1 -4.43140465389831704e+01
3706 1 4.85047748528425160e+01
3707 1 2.72949561020395947e+02
3708 1 5.05312007031504606e+01
3709 1 -2.81246449706871822e+01
3710 1 6.32648640150607591e+01
3711 1 -3.95916067935920353e+02
3712 1 3.03186325656968393e+02
3713 1 1.36085476780459061e+02
3714 1 1.60338673678703962e+01
3715 1 -4.25694530224880225e+02
3716 1 -7.79716597087205177e+00
3717 1 2.50214991485918645e+01
3718 1 5.45262394403667301e+01
3719 1 1.30778187075385148e+02
3720 1 -1.05006818605084167e+01
3721 1 -1.04391263635941939e+02
3722 1 6.58329053987670392e+01
3723 1 1.66686505259748458e+02
3724 1 1.70620483586736839e+02
3725 1 1.19052185913890639e+02
3726 1 1.10639497643695151e+02
3727 1 3.42503115876885644e+01
3728 1 -8.78356244045856869e+01
3729 1 2.18966832812830944e+02
3730 1 3.38627268235182797e+01
3731 1 5.45091913070299157e+01
3732 1 3.13196929586542616e+01
3733 1 1.71694053424232465e+02
3734 1 9.05478700169992408e+01
3735 1 9.13152487168406566e+01
3736 1 2.67538689642711404e+02
3737 1 1.44948373408959583e+02
3738 1 9.55098786511191946e+01
3739 1 7.43037808135722599e+01
3740 1 6.93037587753538844e+01
3741 1 6.70148770700657366e+01
3742 1 6.46562991032076582e+01
3743 1 -2.04572873238448153e+02
3744 1 -1.82918943369785836e+02
3745 1 -2.41919981467565691e+02
3746 1 -1.71300888815273396e+02
3747 1 -3.77475531506868492e+02
3748 1 -3.74150197452459224e+02
3749 1 -4.06704687580967573e+02
3750 1 -3.32568021078420415e+01
3751 1 -1.18415499548852921e+02
3752 1 3.69346916086645592e+02
3753 1 3.11997223856697303e+02
3754 1 -4.84155983416948459e+01
3755 1 2.29252481821770964e+01
3756 1 -4.60196256298294628e+01
3757 1 -1.94623960169277012e+02
3758 1 -1.64857952483545461e+02
3759 1 2.58973094061615484e+02
3760 1 6.49026224491405657e+01
3761 1 1.42124564542844240e+02
3762 1 1.81258629256772764e+02
3763 1 -7.02380755947225026e+01
3764 1 -2.60735439067457708e+00
3765 1 -1.43106636868679561e+03
3766 1 1.55778070476681194e+02
3767 1 3.33719776440210225e+01
3768 1 3.69267567207396823e+01
3769 1 6.37491416759840561e+01
3770 1 9.23557449417097871e+01
3771 1 1.41458510335667256e+02
3772 1 4.22986277342451942e+01
3773 1 1.36719157321718029e+02
3774 1 1.18958304808415278e+02
3775 1 8.96602507449582617e+01
3776 1 3.62745309262282831e+02
3777 1 2.05019883043224269e+02
3778 1 1.73687210877448273e+01
3779 1 5.33191737742065257e+01
3780 1 1.69195837341532247e+01
3781 1 1.82527527892474410e+02
3782 1 1.05834154360891887e+02
3783 1 9.77889672781459609e+01
3784 1 1.32885540108934180e+02
3785 1 7.69991898008646984e+01
3786 1 6.79954820295051547e+01
3787 1 6.06175972367745644e+01
3788 1 -5.83359537558513850e+01
3789 1 1.24469563321905152e+01
3790 1 -1.24689111211383775e+02
3791 1 1.55598452987278591e+02
3792 1 -4.27976427695041721e+01
3793 1 2.57749160577057467e+02
3794 1 4.41956688745776148e+02
3795 1 1.19387786278886381e+02
3796 1 5.87645650806235125e+01
3797 1 9.35831608234676366e+01
3798 1 2.46005032956579157e+02
3799 1 7.13496194433556980e+02
3800 1 2.41899265581208454e+01
3801 1 1.44805415929935180e+03
3802 1 -3.52931091233612165e+02
3803 1 2.12093322030917733e+02
3804 1 1.96571683735428422e+02
3805 1 3.37682327289980293e+01
3806 1 4.81508978776403680e+01
3807 1 7.88145017249512847e+01
3808 1 1.14795698381558140e+02
3809 1 1.65409585293400426e+02
3810 1 2.21876453588005859e+02
3811 1 2.28904357829815439e+02
3812 1 1.53785766888514615e+02
3813 1 1.02153358544036308e+02
3814 1 -1.49634487639196827e+01
3815 1 6.43214128353557442e+01
3816 1 1.37172039589766861e+01
3817 1 1.03499783057577048e+02
3818 1 6.85560569806428362e+01
3819 1 5.14961262943216695e+01
3820 1 4.69811350072962526e+01
3821 1 -6.73885745198868058e+00
3822 1 2.67997944485572219e+01
3823 1 5.91993380709065832e+02
3824 1 3.55023184393961913e+02
3825 1 9.49228028931477041e+01
3826 1 7.97758843306177994e+01
3827 1 8.20816230862597251e+01
3828 1 2.06404937646240825e+02
3829 1 2.89879425727892567e+02
3830 1 8.73360731519073056e+02
3831 1 9.02086995020156763e+01
3832 1 2.63785061063920693e+02
3833 1 6.16313493912139506e+02
3834 1 4.60756014590312361e+02
3835 1 2.05444751254482469e+02
3836 1 1.89837156608119074e+02
3837 1 4.81488398966843878e+00
3838 1 4.88152251984360177e+01
3839 1 1.78455592933421627e+01
3840 1 7.48593963179720276e+01
3841 1 1.25642404593182519e+02
3842 1 2.44450733946614378e+02
3843 1 6.60149353383857544e+01
3844 1 4.93629503707694823e+01
3845 1 -4.44635068298928147e+01
3846 1 3.03061331484137604e+01
3847 1 2.07449919860562275e+01
3848 1 -1.03114575867538907e+01
3849 1 1.25705221051805978e+02
3850 1 4.54081379557695016e+02
3851 1 5.71722016902185715e+02
3852 1 8.85422553731280715e+01
3853 1 1.77299971456576429e+02
3854 1 1.08822957942553387e+02
3855 1 1.01245706945945031e+02
3856 1 1.66305872059264118e+02
3857 1 4.03538159121909530e+02
3858 1 2.50462674996243976e+02
3859 1 4.03573286212625192e+02
3860 1 4.10133143985036668e+02
3861 1 1.31837575229775638e+02
3862 1 2.12376423535642260e+02
3863 1 3.12842502483465069e+02
3864 1 1.54800571417417160e+02
3865 1 1.01205929776326926e+02
3866 1 1.23685085251574179e+02
3867 1 -2.59312047504755938e+01
3868 1 3.47246479591931845e+01
3869 1 2.72933757971820556e+00
3870 1 5.75599813712258026e+01
3871 1 1.02059663635971489e+02
3872 1 -1.05078829944492291e+00
3873 1 -3.05221707143923737e+01
3874 1 -2.90914738658982799e+01
3875 1 -7.42077233847652593e+01
3876 1 1.66222135817463453e+02
3877 1 1.51476480998829373e+02
3878 1 1.17174587071099040e+02
3879 1 7.06058504810732472e+01
3880 1 3.53781742621870379e+01
3881 1 1.34343251563947632e+02
3882 1 2.44642637626243243e+02
3883 1 2.70830252538813966e+02
3884 1 1.41306862532551008e+02
3885 1 1.49089230264619971e+02
3886 1 1.70680008739801735e+02
3887 1 -1.23279855315596141e+01
3888 1 -1.15539386427896940e+01
3889 1 -5.54975956351993602e+01
3890 1 -2.52877330428124125e+01
3891 1 3.95766357791919843e+00
3892 1 1.86683743415737737e+01
3893 1 -6.35190315841384461e+01
3894 1 -4.64967724632997275e+01
3895 1 -8.44999890693333668e+01
3896 1 -1.19960806893971565e+02
3897 1 -8.60670817482047283e+01
3898 1 -8.73627928198623778e+01
3899 1 -1.11078362489076909e+02
3900 1 8.14864285559514911e+01
3901 1 -1.81215103863856228e+01
3902 1 -2.76466733370354270e+01
3903 1 7.07720010750206683e+01
3904 1 1.61433139159907682e+02
3905 1 1.24859567540327447e+02
3906 1 1.24896023228896127e+02
3907 1 1.08756727143500555e+02
3908 1 1.15117537650807961e+02
3909 1 -9.56512911575990756e+01
3910 1 -3.22188257766691493e+02
3911 1 -1.42264317810634395e+02
3912 1 -3.35931054116251318e+01
3913 1 -5.65800721308907910e+01
3914 1 -1.23266402310784343e+02
3915 1 -2.81608166427824465e+01
3916 1 2.89333215235428554e+02
3917 1 4.64598066920551958e+02
3918 1 -1.24879543172602439e+02
3919 1 -1.40183787046873391e+02
3920 1 -1.38671283110633141e+02
3921 1 1.44299621509045153e+02
3922 1 -7.83549630330251006e+01
3923 1 5.59232748774830455e+01
3924 1 1.02655045415839353e+02
3925 1 8.55565749387217949e+01
3926 1 7.00542425035670533e+01
3927 1 4.00139275379867065e+00
3928 1 -5.49217540865013007e+02
3929 1 -1.68111754258019403e+02
3930 1 -2.28296626350033307e+02
3931 1 -1.94502462553023918e+02
3932 1 -1.91911038347134138e+02
3933 1 1.01301234256765902e+01
3934 1 -9.86557212299112223e+01
3935 1 4.94409673980288005e+02
3936 1 4.73777659602903782e+02
3937 1 -2.24057215083420203e+02
3938 1 -2.70809209708457956e+02
3939 1 6.27645372182497113e+02
3940 1 8.50102764809440288e+01
3941 1 6.27271819336519911e+01
3942 1 3.28217413879355959e+01
3943 1 -2.54781453581592245e+01
3944 1 -1.84991973704132739e+01
3945 1 -6.20560489420116923e+01
3946 1 2.53996705225697248e+01
3947 1 1.15721916567056596e+02
3948 1 1.60674758899593257e+02
3949 1 -2.73085542413764927e+02
3950 1 -4.40087692092115049e+02
3951 1 -1.11274931821869529e+02
3952 1 4.73864413922615825e+02
3953 1 4.75753385840123713e+02
3954 1 4.91079151995560608e+02
3955 1 -1.08125148824847543e+03
3956 1 4.49496722393522589e+02
3957 1 6.60025587278195474e+01
3958 1 4.25641940217158279e+01
3959 1 1.40566014748174624e+01
3960 1 1.90745525069011080e+02
3961 1 2.13081042740128481e+01
3962 1 7.50674383121273223e+01
3963 1 -1.48357230425337150e+02
3964 1 5.32801982831710802e+02
3965 1 8.69477990718308291e+01
3966 1 4.71899439518873749e+02
3967 1 -4.64130118702810591e+02
3968 1 4.60906718550584742e+02
3969 1 5.46209979101242993e+02
3970 1 -1.79758227791554113e+01
3971 1 2.87032871547235573e+02
3972 1 2.61759005670990774e+01
3973 1 3.57065773149681434e+01
3974 1 2.91116918042266207e+02
3975 1 1.69491204420471433e+02
3976 1 -2.03531114463485920e+02
3977 1 8.59863966701874034e+01
3978 1 3.05388115580517017e+01
3979 1 2.15446839537094519e+02
3980 1 8.16644951860086366e+01
3981 1 -1.26092484915738595e+02
3982 1 7.99029424062173099e+00
3983 1 5.73711319488722893e+02
3984 1 5.51271224818226187e+02
3985 1 2.94105618854688089e+02
3986 1 1.32099678949519614e+02
3987 1 3.59859925681402970e+01
3988 1 1.43653092204099949e+02
3989 1 5.81938377218163723e+01
3990 1 4.51007631249155665e+01
3991 1 1.89080631265065506e+02
3992 1 1.50368808489848959e+02
3993 1 -4.22915798731333211e+02
3994 1 1.10700584110046037e+02
3995 1 8.34317798232172123e+01
3996 1 -6.84691041811131527e+01
3997 1 -7.62981792956995832e+01
3998 1 3.24236590760358467e+01
3999 1 1.12028066855766568e+02
4000 1 1.29056520015845649e+02
4001 1 3.18700142298902094e+01
4002 1 1.16980496506364773e+02
4003 1 1.29359595978655278e+02
4004 1 1.34072137084283668e+02
4005 1 -2.75972035166593116e+02
4006 1 5.93787954601892167e+01
4007 1 1.14345608278778826e+02
4008 1 1.13915454316665702e+02
4009 1 1.15376747268657425e+02
4010 1 -1.01450128625149162e+02
4011 1 9.71549300531422659e+01
4012 1 3.80897474752647582e+01
4013 1 9.77566548461152252e+01
4014 1 8.40751237588686564e+01
4015 1 1.36526959496116206e+02
4016 1 -2.80256977514367094e+01
4017 1 5.08527044071760059e+01
4018 1 -5.98609279208311136e+02
4019 1 -2.96157616057747134e+02
4020 1 8.14841306474325933e+01
4021 1 3.92115427946784678e+02
4022 1 -6.24870630525805097e+01
4023 1 -7.76480987089567378e+01
4024 1 -2.75254786132573031e+02
4025 1 9.30452019458024324e+01
4026 1 1.19331375419873460e+01
4027 1 9.03637377714185561e+01
4028 1 6.73380912991874823e+01
4029 1 8.52450842496498780e+01
4030 1 8.46145296372398974e+01
4031 1 8.11355137988811919e+01
4032 1 1.22427133001142082e+02
4033 1 5.65612048054663674e+01
4034 1 2.66340483472338541e+01
4035 1 1.32592539566185536e+02
4036 1 4.61810632524837104e+01
4037 1 5.58737013094508299e+01
4038 1 -9.41080014494496140e+02
4039 1 -1.16063849887132346e+03
4040 1 -8.57270022201315328e+02
4041 1 -9.14636355479062786e+02
4042 1 -6.27110569224707959e+00
4043 1 -3.97323198602047739e+02
4044 1 -1.08900154578436150e+03
4045 1 4.00129308249744540e+01
4046 1 8.63714375704139457e+01
4047 1 7.25521804048323702e+01
4048 1 8.39411690569696844e+01
4049 1 8.43321204376678395e+01
4050 1 3.50364596872485601e+00
4051 1 4.28537862504490477e+01
4052 1 7.85751796972081991e+01
4053 1 6.20806253189167236e+01
4054 1 6.08276514250029550e+01
4055 1 6.81592368912848343e+01
4056 1 -2.31276543648218222e+02
4057 1 3.83914263036738816e+01
4058 1 8.35461866283058185e+01
4059 1 -1.33946409322831596e+03
4060 1 -1.81311476428636070e+03
4061 1 -1.71261019713400810e+03
4062 1 -7.02265230681375897e+02
4063 1 -1.14278033726415902e+03
4064 1 -7.63655812426750686e+02
4065 1 8.32219464289334923e+01
4066 1 8.35737668306625210e+01
4067 1 8.40821620734881350e+01
4068 1 4.99633105464609955e+01
4069 1 1.09144491010100566e+02
4070 1 7.29892409145038101e+01
4071 1 8.12086179227523672e+01
4072 1 7.62342174395251106e+01
4073 1 8.51886839334430732e+01
4074 1 9.84936741676332730e+01
4075 1 1.28895808638837337e+02
4076 1 1.08212154307590694e+02
4077 1 2.79329163119808356e+02
4078 1 4.60428888997966567e+02
4079 1 1.71603463979896389e+02
4080 1 2.13748513617386152e+02
4081 1 -1.81566258199834306e+03
4082 1 3.57793953121192999e+02
4083 1 -5.89328774986988265e+02
4084 1 -2.29409481977753899e+02
4085 1 2.85512421859500535e+02
4086 1 8.08326330946979112e+01
4087 1 7.63572635942183382e+01
4088 1 1.15616792568642637e+02
4089 1 8.07497893145725385e+01
4090 1 7.71232162370300358e+01
4091 1 9.22057681902737443e+01
4092 1 1.92927809294996706e+02
4093 1 1.40500422411978576e+02
4094 1 1.50367423106131696e+02
4095 1 1.60530833708811315e+03
4096 1 8.47587006018501484e+02
4097 1 5.23016375948143377e+02
4098 1 2.51681411938002753e+02
4099 1 2.89322935296148160e+02
4100 1 2.98020763302721718e+02
4101 1 3.81194319297176889e+02
4102 1 6.03049895360882601e+02
4103 1 4.59262176741194423e+02
4104 1 9.37305075743503977e+01
4105 1 4.06226926506586778e+02
4106 1 2.40138466192051538e+02
4107 1 9.83922704479183949e+02
4108 1 1.90041135398424672e+02
4109 1 1.60946710337300345e+02
4110 1 1.21846223411877850e+03
4111 1 4.58974625689934612e+02
4112 1 6.13341361720948839e+02
4113 1 3.13597781681640527e+02
4114 1 3.65511153084206569e+02
4115 1 6.44122397356670376e+02
4116 1 4.76849438122603942e+02
4117 1 1.11556104706679503e+03
4118 1 7.58639664550342445e+02
4119 1 1.35485852927997939e+03
4120 1 3.11760725583082433e+02
4121 1 4.36410813542649294e+02
4122 1 5.02558927731752021e+02
4123 1 3.88870288675379868e+02
4124 1 3.64416277524800705e+02
4125 1 2.64347178822355204e+02
4126 1 -1.44976298499413133e+02
4127 1 1.37672846780026362e+02
4128 1 -9.30712301601626905e+02
4129 1 9.04928723650828601e+01
4130 1 9.67152082337328238e+01
4131 1 7.88827821260414552e+00
4132 1 -6.00582542456385681e+02
4133 1 -5.31914931536386007e+02
4134 1 -1.75425166131534922e+02
4135 1 2.10918908825262470e+01
4136 1 -7.21948626665175208e+00
4137 1 -1.24927429581830808e+02
4138 1 -9.88086724890734018e+01
4139 1 -4.42774521301304389e+02
4140 1 -2.15497096142255543e+02
4141 1 -3.57053795487829689e+02
4142 1 -2.09923480404972800e+01
4143 1 -1.11338021359260431e+01
4144 1 -5.59430619906160160e+01
4145 1 -9.77068730007176640e+01
4146 1 -1.68801526707255675e+02
4147 1 -1.37598977790893088e+02
4148 1 -3.07390303666521220e+02
4149 1 -2.52800625786768279e+02
4150 1 -2.04558797694711728e+02
4151 1 -2.51727787043768032e+01
4152 1 -4.69572048001089968e+01
4153 1 -1.83937060275219508e+01
4154 1 -8.22126209535809807e+01
4155 1 -1.21385292723836514e+02
4156 1 -1.45288681724493358e+02
4157 1 -1.65064331587951330e+02
4158 1 -1.92984392852851499e+02
4159 1 -2.34980237896920954e+02
4160 1 -1.40570938256609395e+02
4161 1 -1.50083993735358604e+02
4162 1 -1.12018117070109000e+02
4163 1 -1.32506800350419468e+02
4164 1 -1.60301639929399101e+02
4165 1 -1.78288391367112808e+02
4166 1 -1.96801876781522054e+02
4167 1 -1.33517284106940963e+02
4168 1 -1.56768844327792209e+02
4169 1 -1.61667932311770727e+02
4170 1 -1.27495188214450977e+02
4171 1 -1.73171498993540467e+02
4172 1 -1.68804797026592894e+02
4173 1 -1.82080803267704511e+02
4174 1 -1.74596465934128958e+02
4175 1 -1.77769759266948910e+02
