%%MatrixMarket matrix coordinate  real general
100 1 100
1 1 2.09617685556041045e-01
2 1 2.04806503584552296e-01
3 1 2.04771745866586335e-01
4 1 2.04959605318367127e-01
5 1 2.05337208865024157e-01
6 1 2.06855543486328758e-01
7 1 2.05592167818681476e-01
8 1 2.02340412221205801e-01
9 1 1.98053410906837452e-01
10 1 1.92953838046375031e-01
11 1 1.97259600293897913e-01
12 1 2.00971076708201662e-01
13 1 2.04580052538915758e-01
14 1 2.19147881703283171e-01
15 1 2.36102079649343155e-01
16 1 2.44980260334604960e-01
17 1 2.46813632252390752e-01
18 1 2.45973209048273245e-01
19 1 2.44172626653470781e-01
20 1 2.39770273102401482e-01
21 1 2.36239291102113003e-01
22 1 2.44927911167395040e-01
23 1 2.45872358175480282e-01
24 1 2.46914183034397189e-01
25 1 2.51083308628158697e-01
26 1 2.50892065733764769e-01
27 1 2.47082770831292708e-01
28 1 2.45075701779135208e-01
29 1 2.46498851670485880e-01
30 1 2.54618208088862930e-01
31 1 2.61726009252599590e-01
32 1 2.65797772388077835e-01
33 1 2.71981846291036167e-01
34 1 2.87480124650947633e-01
35 1 2.95000677374834597e-01
36 1 3.00200040868980778e-01
37 1 3.09155361304176035e-01
38 1 3.19657343537978533e-01
39 1 3.36656071617189134e-01
40 1 3.53765398061385572e-01
41 1 3.65619147710890435e-01
42 1 3.81084412412153184e-01
43 1 4.08336066141676390e-01
44 1 4.35329106885874062e-01
45 1 4.64977614954746099e-01
46 1 4.91431373961391194e-01
47 1 5.06273498001736599e-01
48 1 5.17764852135153775e-01
49 1 5.36290115060142236e-01
50 1 5.48370286299524112e-01
51 1 5.61101893747577130e-01
52 1 5.72335989303789594e-01
53 1 5.82545224671462303e-01
54 1 6.01061141389822362e-01
55 1 6.30665296727786040e-01
56 1 6.58944621809590125e-01
57 1 6.80193229078078665e-01
58 1 6.98414676081116959e-01
59 1 6.99901769402168639e-01
60 1 7.00740498669012113e-01
61 1 7.18951010852356687e-01
62 1 7.46158440989012295e-01
63 1 7.87613076940688495e-01
64 1 8.13018177148842502e-01
65 1 8.31919711440620158e-01
66 1 8.66321881504305780e-01
67 1 8.74117323208566277e-01
68 1 8.97015115493545179e-01
69 1 9.22806175726101241e-01
70 1 9.42816601308820279e-01
71 1 9.60719204773847202e-01
72 1 9.77745964446021465e-01
73 1 1.01028789958222465e+00
74 1 1.03438247191288868e+00
75 1 1.05417586352643022e+00
76 1 1.06910467413272392e+00
77 1 1.08128585858474668e+00
78 1 1.09108294273370143e+00
79 1 1.09944458718512728e+00
80 1 1.10626919234181442e+00
81 1 1.11181875730729485e+00
82 1 1.11632240110262537e+00
83 1 1.11997018400994963e+00
84 1 1.12291919540116725e+00
85 1 1.12529873083891863e+00
86 1 1.12721583476840803e+00
87 1 1.12875852163588020e+00
88 1 1.12999912164990435e+00
89 1 1.13099596858288831e+00
90 1 1.13179714795461916e+00
91 1 1.13244230159991299e+00
92 1 1.13296171271480062e+00
93 1 1.13338087312928648e+00
94 1 1.13371969202296197e+00
95 1 1.13399367157066022e+00
96 1 1.13421715718395233e+00
97 1 1.13439860892868793e+00
98 1 1.13454748800606353e+00
99 1 1.13466903847617595e+00
100 1 1.13476931827806538e+00
