%%MatrixMarket matrix coordinate  real general
3406 3 10218
1 1 293
1 2 294
1 3 295
2 1 251
2 2 252
2 3 408
3 1 66
3 2 62
3 3 63
4 1 46
4 2 47
4 3 213
5 1 175
5 2 176
5 3 1506
6 1 290
6 2 289
6 3 394
7 1 292
7 2 378
7 3 673
8 1 267
8 2 265
8 3 266
9 1 256
9 2 388
9 3 411
10 1 263
10 2 261
10 3 262
11 1 28
11 2 26
11 3 27
12 1 20
12 2 18
12 3 19
13 1 283
13 2 285
13 3 284
14 1 291
14 2 289
14 3 290
15 1 262
15 2 261
15 3 501
16 1 381
16 2 39
16 3 40
17 1 224
17 2 225
17 3 380
18 1 237
18 2 236
18 3 337
19 1 238
19 2 151
19 3 152
20 1 300
20 2 301
20 3 1426
21 1 340
21 2 339
21 3 226
22 1 28
22 2 29
22 3 309
23 1 214
23 2 213
23 3 645
24 1 279
24 2 278
24 3 490
25 1 77
25 2 75
25 3 76
26 1 330
26 2 329
26 3 275
27 1 306
27 2 64
27 3 65
28 1 63
28 2 306
28 3 66
29 1 64
29 2 306
29 3 63
30 1 51
30 2 307
30 3 50
31 1 310
31 2 309
31 3 29
32 1 308
32 2 309
32 3 1505
33 1 184
33 2 185
33 3 313
34 1 311
34 2 312
34 3 186
35 1 314
35 2 313
35 3 185
36 1 312
36 2 311
36 3 313
37 1 313
37 2 314
37 3 312
38 1 246
38 2 245
38 3 317
39 1 245
39 2 244
39 3 317
40 1 244
40 2 315
40 3 317
41 1 315
41 2 344
41 3 317
42 1 238
42 2 152
42 3 509
43 1 245
43 2 246
43 3 321
44 1 321
44 2 320
44 3 323
45 1 322
45 2 245
45 3 323
46 1 245
46 2 321
46 3 323
47 1 273
47 2 274
47 3 328
48 1 319
48 2 320
48 3 324
49 1 321
49 2 246
49 3 325
50 1 324
50 2 320
50 3 325
51 1 320
51 2 321
51 3 325
52 1 235
52 2 236
52 3 347
53 1 274
53 2 273
53 3 329
54 1 273
54 2 272
54 3 329
55 1 329
55 2 330
55 3 274
56 1 105
56 2 106
56 3 333
57 1 106
57 2 107
57 3 333
58 1 125
58 2 126
58 3 335
59 1 126
59 2 127
59 3 335
60 1 45
60 2 46
60 3 336
61 1 46
61 2 213
61 3 336
62 1 213
62 2 214
62 3 336
63 1 234
63 2 233
63 3 338
64 1 151
64 2 238
64 3 1502
65 1 337
65 2 236
65 3 338
66 1 236
66 2 235
66 3 338
67 1 235
67 2 234
67 3 338
68 1 87
68 2 88
68 3 339
69 1 227
69 2 226
69 3 339
70 1 339
70 2 340
70 3 87
71 1 340
71 2 86
71 3 87
72 1 233
72 2 234
72 3 342
73 1 232
73 2 233
73 3 342
74 1 324
74 2 325
74 3 343
75 1 325
75 2 344
75 3 343
76 1 317
76 2 344
76 3 246
77 1 343
77 2 344
77 3 316
78 1 344
78 2 325
78 3 246
79 1 322
79 2 323
79 3 345
80 1 323
80 2 320
80 3 345
81 1 320
81 2 319
81 3 345
82 1 194
82 2 195
82 3 350
83 1 313
83 2 311
83 3 352
84 1 184
84 2 313
84 3 352
85 1 112
85 2 113
85 3 353
86 1 113
86 2 114
86 3 353
87 1 359
87 2 356
87 3 357
88 1 356
88 2 358
88 3 357
89 1 361
89 2 360
89 3 103
90 1 359
90 2 354
90 3 356
91 1 354
91 2 359
91 3 355
92 1 104
92 2 358
92 3 360
93 1 358
93 2 356
93 3 360
94 1 360
94 2 361
94 3 104
95 1 364
95 2 363
95 3 362
96 1 103
96 2 360
96 3 363
97 1 360
97 2 356
97 3 363
98 1 356
98 2 354
98 3 363
99 1 363
99 2 364
99 3 103
100 1 354
100 2 367
100 3 365
101 1 368
101 2 365
101 3 366
102 1 365
102 2 367
102 3 366
103 1 367
103 2 354
103 3 355
104 1 102
104 2 362
104 3 373
105 1 365
105 2 368
105 3 369
106 1 368
106 2 105
106 3 369
107 1 369
107 2 105
107 3 370
108 1 105
108 2 333
108 3 370
109 1 354
109 2 365
109 3 371
110 1 365
110 2 369
110 3 371
111 1 371
111 2 369
111 3 372
112 1 369
112 2 370
112 3 372
113 1 362
113 2 363
113 3 373
114 1 363
114 2 354
114 3 373
115 1 354
115 2 371
115 3 373
116 1 102
116 2 373
116 3 374
117 1 373
117 2 371
117 3 374
118 1 371
118 2 372
118 3 374
119 1 225
119 2 224
119 3 377
120 1 292
120 2 291
120 3 378
121 1 291
121 2 290
121 3 378
122 1 268
122 2 269
122 3 379
123 1 269
123 2 270
123 3 379
124 1 225
124 2 3
124 3 380
125 1 3
125 2 4
125 3 380
126 1 271
126 2 272
126 3 382
127 1 272
127 2 273
127 3 382
128 1 288
128 2 289
128 3 384
129 1 291
129 2 292
129 3 404
130 1 15
130 2 16
130 3 386
131 1 385
131 2 387
131 3 386
132 1 386
132 2 387
132 3 15
133 1 13
133 2 14
133 3 1500
134 1 388
134 2 257
134 3 389
135 1 257
135 2 258
135 3 389
136 1 258
136 2 259
136 3 389
137 1 80
137 2 81
137 3 392
138 1 269
138 2 268
138 3 390
139 1 268
139 2 267
139 3 390
140 1 267
140 2 266
140 3 390
141 1 393
141 2 392
141 3 81
142 1 393
142 2 391
142 3 392
143 1 289
143 2 288
143 3 394
144 1 305
144 2 396
144 3 212
145 1 258
145 2 257
145 3 399
146 1 397
146 2 398
146 3 399
147 1 400
147 2 399
147 3 398
148 1 399
148 2 400
148 3 258
149 1 296
149 2 295
149 3 401
150 1 295
150 2 294
150 3 401
151 1 272
151 2 271
151 3 402
152 1 403
152 2 402
152 3 271
153 1 402
153 2 403
153 3 270
154 1 405
154 2 404
154 3 292
155 1 383
155 2 384
155 3 404
156 1 384
156 2 289
156 3 404
157 1 289
157 2 291
157 3 404
158 1 299
158 2 405
158 3 292
159 1 404
159 2 405
159 3 293
160 1 146
160 2 147
160 3 406
161 1 147
161 2 148
161 3 406
162 1 252
162 2 407
162 3 408
163 1 250
163 2 251
163 3 408
164 1 73
164 2 74
164 3 1864
165 1 392
165 2 391
165 3 410
166 1 80
166 2 392
166 3 410
167 1 388
167 2 389
167 3 411
168 1 389
168 2 259
168 3 411
169 1 380
169 2 4
169 3 413
170 1 224
170 2 380
170 3 413
171 1 303
171 2 302
171 3 416
172 1 420
172 2 419
172 3 2
173 1 225
173 2 377
173 3 419
174 1 377
174 2 376
174 3 419
175 1 420
175 2 225
175 3 419
176 1 225
176 2 420
176 3 3
177 1 376
177 2 377
177 3 421
178 1 377
178 2 422
178 3 421
179 1 421
179 2 422
179 3 223
180 1 422
180 2 377
180 3 224
181 1 101
181 2 102
181 3 424
182 1 374
182 2 372
182 3 423
183 1 372
183 2 370
183 3 466
184 1 102
184 2 374
184 3 424
185 1 374
185 2 423
185 3 424
186 1 423
186 2 425
186 3 424
187 1 424
187 2 425
187 3 101
188 1 425
188 2 423
188 3 100
189 1 114
189 2 115
189 3 1499
190 1 112
190 2 353
190 3 428
191 1 311
191 2 186
191 3 1441
192 1 166
192 2 167
192 3 432
193 1 150
193 2 151
193 3 1503
194 1 338
194 2 233
194 3 434
195 1 233
195 2 232
195 3 434
196 1 337
196 2 338
196 3 434
197 1 170
197 2 171
197 3 436
198 1 171
198 2 172
198 3 436
199 1 173
199 2 174
199 3 438
200 1 436
200 2 172
200 3 443
201 1 305
201 2 304
201 3 439
202 1 303
202 2 416
202 3 1440
203 1 302
203 2 303
203 3 440
204 1 1868
204 2 440
204 3 303
205 1 136
205 2 137
205 3 508
206 1 769
206 2 442
206 3 142
207 1 444
207 2 443
207 3 172
208 1 443
208 2 1867
208 3 438
209 1 170
209 2 436
209 3 446
210 1 1881
210 2 447
210 3 255
211 1 256
211 2 411
211 3 447
212 1 407
212 2 252
212 3 450
213 1 197
213 2 198
213 3 449
214 1 146
214 2 406
214 3 453
215 1 148
215 2 149
215 3 455
216 1 406
216 2 148
216 3 455
217 1 403
217 2 271
217 3 457
218 1 379
218 2 270
218 3 575
219 1 277
219 2 298
219 3 459
220 1 1417
220 2 571
220 3 297
221 1 260
221 2 259
221 3 460
222 1 259
222 2 258
222 3 460
223 1 258
223 2 400
223 3 460
224 1 397
224 2 399
224 3 1416
225 1 388
225 2 256
225 3 463
226 1 260
226 2 528
226 3 535
227 1 267
227 2 268
227 3 465
228 1 268
228 2 379
228 3 465
229 1 370
229 2 333
229 3 466
230 1 333
230 2 332
230 3 466
231 1 466
231 2 332
231 3 467
232 1 350
232 2 349
232 3 471
233 1 194
233 2 350
233 3 471
234 1 350
234 2 1866
234 3 472
235 1 1324
235 2 852
235 3 154
236 1 318
236 2 839
236 3 840
237 1 347
237 2 236
237 3 552
238 1 343
238 2 316
238 3 475
239 1 316
239 2 247
239 3 475
240 1 324
240 2 343
240 3 475
241 1 341
241 2 342
241 3 476
242 1 342
242 2 234
242 3 476
243 1 234
243 2 235
243 3 476
244 1 235
244 2 347
244 3 476
245 1 229
245 2 228
245 3 548
246 1 90
246 2 91
246 3 479
247 1 332
247 2 333
247 3 480
248 1 333
248 2 107
248 3 480
249 1 330
249 2 275
249 3 482
250 1 275
250 2 276
250 3 482
251 1 282
251 2 49
251 3 483
252 1 49
252 2 307
252 3 483
253 1 307
253 2 51
253 3 483
254 1 62
254 2 1415
254 3 484
255 1 67
255 2 68
255 3 484
256 1 278
256 2 279
256 3 488
257 1 277
257 2 278
257 3 487
258 1 486
258 2 487
258 3 488
259 1 487
259 2 278
259 3 488
260 1 1865
260 2 507
260 3 219
261 1 217
261 2 218
261 3 493
262 1 189
262 2 190
262 3 1328
263 1 161
263 2 162
263 3 495
264 1 435
264 2 161
264 3 1325
265 1 162
265 2 163
265 3 496
266 1 1321
266 2 1324
266 3 155
267 1 239
267 2 240
267 3 497
268 1 498
268 2 499
268 3 38
269 1 23
269 2 24
269 3 502
270 1 24
270 2 25
270 3 502
271 1 25
271 2 26
271 3 502
272 1 240
272 2 239
272 3 503
273 1 276
273 2 275
273 3 504
274 1 409
274 2 410
274 3 518
275 1 77
275 2 78
275 3 505
276 1 78
276 2 79
276 3 505
277 1 484
277 2 68
277 3 506
278 1 68
278 2 69
278 3 506
279 1 69
279 2 70
279 3 506
280 1 218
280 2 217
280 3 507
281 1 137
281 2 138
281 3 508
282 1 138
282 2 139
282 3 593
283 1 1320
283 2 509
283 3 152
284 1 473
284 2 552
284 3 1319
285 1 131
285 2 132
285 3 511
286 1 136
286 2 508
286 3 1308
287 1 72
287 2 73
287 3 513
288 1 83
288 2 84
288 3 514
289 1 83
289 2 514
289 3 1863
290 1 269
290 2 390
290 3 517
291 1 410
291 2 391
291 3 518
292 1 391
292 2 515
292 3 518
293 1 241
293 2 503
293 3 520
294 1 503
294 2 239
294 3 522
295 1 520
295 2 521
295 3 241
296 1 26
296 2 28
296 3 1302
297 1 309
297 2 308
297 3 523
298 1 264
298 2 263
298 3 1277
299 1 501
299 2 500
299 3 525
300 1 460
300 2 400
300 3 527
301 1 500
301 2 501
301 3 526
302 1 400
302 2 398
302 3 527
303 1 398
303 2 526
303 3 527
304 1 263
304 2 528
304 3 261
305 1 460
305 2 528
305 3 260
306 1 526
306 2 501
306 3 529
307 1 501
307 2 261
307 3 529
308 1 261
308 2 528
308 3 529
309 1 528
309 2 460
309 3 529
310 1 460
310 2 527
310 3 529
311 1 527
311 2 526
311 3 529
312 1 531
312 2 266
312 3 265
313 1 531
313 2 265
313 3 532
314 1 530
314 2 532
314 3 533
315 1 265
315 2 267
315 3 1862
316 1 528
316 2 263
316 3 534
317 1 263
317 2 264
317 3 534
318 1 264
318 2 531
318 3 534
319 1 531
319 2 532
319 3 534
320 1 532
320 2 530
320 3 534
321 1 528
321 2 534
321 3 535
322 1 534
322 2 530
322 3 535
323 1 260
323 2 535
323 3 536
324 1 535
324 2 530
324 3 536
325 1 31
325 2 32
325 3 1861
326 1 498
326 2 38
326 3 1275
327 1 38
327 2 39
327 3 538
328 1 489
328 2 936
328 3 1255
329 1 278
329 2 277
329 3 540
330 1 459
330 2 458
330 3 539
331 1 277
331 2 459
331 3 540
332 1 459
332 2 539
332 3 540
333 1 490
333 2 278
333 3 540
334 1 86
334 2 340
334 3 541
335 1 340
335 2 226
335 3 541
336 1 482
336 2 276
336 3 541
337 1 328
337 2 274
337 3 542
338 1 274
338 2 330
338 3 1250
339 1 327
339 2 328
339 3 543
340 1 328
340 2 542
340 3 543
341 1 542
341 2 481
341 3 1249
342 1 227
342 2 228
342 3 1248
343 1 543
343 2 1249
343 3 1860
344 1 429
344 2 427
344 3 547
345 1 228
345 2 227
345 3 548
346 1 229
346 2 548
346 3 549
347 1 548
347 2 477
347 3 549
348 1 477
348 2 548
348 3 550
349 1 548
349 2 227
349 3 550
350 1 227
350 2 339
350 3 550
351 1 476
351 2 347
351 3 551
352 1 347
352 2 346
352 3 551
353 1 236
353 2 237
353 3 552
354 1 554
354 2 553
354 3 470
355 1 194
355 2 471
355 3 553
356 1 471
356 2 469
356 3 553
357 1 553
357 2 554
357 3 194
358 1 315
358 2 244
358 3 558
359 1 471
359 2 349
359 3 556
360 1 348
360 2 555
360 3 556
361 1 555
361 2 469
361 3 556
362 1 469
362 2 471
362 3 556
363 1 558
363 2 557
363 3 559
364 1 557
364 2 558
364 3 560
365 1 558
365 2 244
365 3 560
366 1 257
366 2 388
366 3 561
367 1 388
367 2 463
367 3 561
368 1 463
368 2 462
368 3 561
369 1 399
369 2 257
369 3 562
370 1 257
370 2 561
370 3 562
371 1 561
371 2 462
371 3 562
372 1 562
372 2 462
372 3 563
373 1 462
373 2 566
373 3 1246
374 1 462
374 2 463
374 3 566
375 1 463
375 2 256
375 3 567
376 1 255
376 2 254
376 3 568
377 1 564
377 2 566
377 3 567
378 1 566
378 2 463
378 3 567
379 1 254
379 2 565
379 3 568
380 1 565
380 2 567
380 3 568
381 1 567
381 2 1881
381 3 568
382 1 200
382 2 201
382 3 570
383 1 458
383 2 459
383 3 571
384 1 459
384 2 298
384 3 571
385 1 298
385 2 297
385 3 571
386 1 458
386 2 571
386 3 572
387 1 571
387 2 296
387 3 572
388 1 296
388 2 401
388 3 572
389 1 294
389 2 293
389 3 672
390 1 572
390 2 401
390 3 574
391 1 270
391 2 403
391 3 575
392 1 403
392 2 457
392 3 575
393 1 464
393 2 465
393 3 576
394 1 465
394 2 379
394 3 576
395 1 379
395 2 575
395 3 576
396 1 575
396 2 457
396 3 576
397 1 457
397 2 456
397 3 576
398 1 456
398 2 457
398 3 577
399 1 457
399 2 271
399 3 1859
400 1 382
400 2 273
400 3 1218
401 1 328
401 2 327
401 3 578
402 1 408
402 2 407
402 3 1217
403 1 254
403 2 255
403 3 580
404 1 255
404 2 447
404 3 580
405 1 253
405 2 254
405 3 580
406 1 169
406 2 170
406 3 581
407 1 170
407 2 446
407 3 581
408 1 446
408 2 445
408 3 581
409 1 581
409 2 445
409 3 583
410 1 169
410 2 581
410 3 584
411 1 581
411 2 583
411 3 584
412 1 432
412 2 167
412 3 585
413 1 168
413 2 169
413 3 1216
414 1 431
414 2 432
414 3 586
415 1 432
415 2 585
415 3 586
416 1 586
416 2 585
416 3 587
417 1 584
417 2 583
417 3 1215
418 1 431
418 2 586
418 3 588
419 1 586
419 2 587
419 3 588
420 1 184
420 2 352
420 3 1213
421 1 431
421 2 588
421 3 590
422 1 588
422 2 587
422 3 1212
423 1 445
423 2 446
423 3 591
424 1 446
424 2 436
424 3 591
425 1 436
425 2 443
425 3 591
426 1 510
426 2 511
426 3 1313
427 1 141
427 2 142
427 3 1210
428 1 592
428 2 593
428 3 594
429 1 593
429 2 139
429 3 594
430 1 139
430 2 1203
430 3 594
431 1 432
431 2 431
431 3 596
432 1 595
432 2 596
432 3 597
433 1 431
433 2 590
433 3 1180
434 1 422
434 2 224
434 3 598
435 1 224
435 2 413
435 3 598
436 1 413
436 2 412
436 3 598
437 1 223
437 2 422
437 3 599
438 1 422
438 2 598
438 3 599
439 1 2
439 2 419
439 3 601
440 1 1
440 2 2
440 3 602
441 1 2
441 2 601
441 3 602
442 1 601
442 2 600
442 3 602
443 1 304
443 2 305
443 3 1829
444 1 1828
444 2 1827
444 3 0
445 1 290
445 2 394
445 3 605
446 1 412
446 2 413
446 3 606
447 1 4
447 2 5
447 3 1141
448 1 397
448 2 607
448 3 398
449 1 607
449 2 526
449 3 398
450 1 500
450 2 526
450 3 608
451 1 526
451 2 607
451 3 608
452 1 607
452 2 283
452 3 608
453 1 608
453 2 283
453 3 610
454 1 285
454 2 283
454 3 1826
455 1 604
455 2 605
455 3 1178
456 1 20
456 2 21
456 3 614
457 1 18
457 2 20
457 3 615
458 1 20
458 2 614
458 3 615
459 1 615
459 2 614
459 3 1825
460 1 613
460 2 1133
460 3 1824
461 1 614
461 2 21
461 3 618
462 1 613
462 2 614
462 3 619
463 1 614
463 2 618
463 3 619
464 1 618
464 2 617
464 3 619
465 1 619
465 2 617
465 3 622
466 1 617
466 2 618
466 3 623
467 1 22
467 2 23
467 3 1823
468 1 17
468 2 18
468 3 624
469 1 626
469 2 625
469 3 16
470 1 624
470 2 616
470 3 625
471 1 626
471 2 624
471 3 625
472 1 624
472 2 626
472 3 17
473 1 385
473 2 386
473 3 627
474 1 16
474 2 625
474 3 1821
475 1 384
475 2 383
475 3 629
476 1 284
476 2 285
476 3 1711
477 1 287
477 2 288
477 3 630
478 1 288
478 2 384
478 3 630
479 1 384
479 2 629
479 3 630
480 1 629
480 2 628
480 3 630
481 1 322
481 2 345
481 3 635
482 1 244
482 2 245
482 3 1819
483 1 322
483 2 635
483 3 636
484 1 635
484 2 634
484 3 636
485 1 634
485 2 635
485 3 637
486 1 635
486 2 345
486 3 637
487 1 335
487 2 640
487 3 125
488 1 335
488 2 127
488 3 641
489 1 119
489 2 120
489 3 643
490 1 546
490 2 547
490 3 963
491 1 216
491 2 646
491 3 215
492 1 645
492 2 646
492 3 214
493 1 646
493 2 216
493 3 214
494 1 644
494 2 645
494 3 647
495 1 645
495 2 213
495 3 647
496 1 213
496 2 47
496 3 647
497 1 648
497 2 647
497 3 47
498 1 647
498 2 648
498 3 48
499 1 98
499 2 99
499 3 650
500 1 96
500 2 97
500 3 652
501 1 206
501 2 207
501 3 654
502 1 205
502 2 206
502 3 655
503 1 206
503 2 654
503 3 655
504 1 654
504 2 653
504 3 655
505 1 655
505 2 657
505 3 664
506 1 655
506 2 653
506 3 657
507 1 203
507 2 656
507 3 657
508 1 657
508 2 653
508 3 660
509 1 658
509 2 697
509 3 660
510 1 203
510 2 657
510 3 660
511 1 654
511 2 207
511 3 663
512 1 207
512 2 662
512 3 663
513 1 662
513 2 208
513 3 663
514 1 208
514 2 661
514 3 663
515 1 661
515 2 660
515 3 663
516 1 660
516 2 653
516 3 663
517 1 653
517 2 654
517 3 663
518 1 657
518 2 656
518 3 664
519 1 656
519 2 204
519 3 664
520 1 204
520 2 205
520 3 664
521 1 205
521 2 655
521 3 664
522 1 499
522 2 498
522 3 693
523 1 32
523 2 33
523 3 665
524 1 229
524 2 230
524 3 667
525 1 230
525 2 231
525 3 667
526 1 231
526 2 666
526 3 667
527 1 56
527 2 57
527 3 669
528 1 55
528 2 56
528 3 669
529 1 669
529 2 57
529 3 671
530 1 59
530 2 60
530 3 676
531 1 57
531 2 58
531 3 671
532 1 668
532 2 669
532 3 671
533 1 293
533 2 405
533 3 672
534 1 405
534 2 299
534 3 672
535 1 301
535 2 674
535 3 673
536 1 299
536 2 292
536 3 673
537 1 673
537 2 674
537 3 299
538 1 674
538 2 301
538 3 300
539 1 574
539 2 401
539 3 1813
540 1 670
540 2 671
540 3 678
541 1 671
541 2 58
541 3 678
542 1 58
542 2 677
542 3 678
543 1 677
543 2 59
543 3 678
544 1 59
544 2 676
544 3 678
545 1 676
545 2 670
545 3 678
546 1 282
546 2 483
546 3 680
547 1 680
547 2 679
547 3 682
548 1 679
548 2 680
548 3 684
549 1 483
549 2 51
549 3 685
550 1 51
550 2 52
550 3 685
551 1 52
551 2 684
551 3 685
552 1 684
552 2 680
552 3 685
553 1 680
553 2 483
553 3 685
554 1 679
554 2 684
554 3 686
555 1 684
555 2 52
555 3 687
556 1 691
556 2 690
556 3 52
557 1 689
557 2 687
557 3 54
558 1 55
558 2 669
558 3 688
559 1 686
559 2 684
559 3 687
560 1 669
560 2 668
560 3 688
561 1 668
561 2 686
561 3 688
562 1 686
562 2 687
562 3 688
563 1 689
563 2 688
563 3 687
564 1 688
564 2 689
564 3 55
565 1 54
565 2 691
565 3 53
566 1 54
566 2 687
566 3 690
567 1 687
567 2 52
567 3 690
568 1 691
568 2 54
568 3 690
569 1 498
569 2 32
569 3 693
570 1 32
570 2 665
570 3 693
571 1 665
571 2 37
571 3 693
572 1 37
572 2 499
572 3 693
573 1 36
573 2 37
573 3 696
574 1 665
574 2 33
574 3 695
575 1 33
575 2 34
575 3 695
576 1 34
576 2 694
576 3 695
577 1 37
577 2 665
577 3 696
578 1 665
578 2 695
578 3 696
579 1 695
579 2 694
579 3 696
580 1 694
580 2 35
580 3 696
581 1 35
581 2 36
581 3 696
582 1 660
582 2 697
582 3 203
583 1 697
583 2 658
583 3 659
584 1 698
584 2 700
584 3 1817
585 1 94
585 2 699
585 3 700
586 1 702
586 2 94
586 3 1812
587 1 98
587 2 650
587 3 736
588 1 650
588 2 649
588 3 704
589 1 703
589 2 704
589 3 707
590 1 128
590 2 129
590 3 711
591 1 704
591 2 649
591 3 706
592 1 704
592 2 706
592 3 707
593 1 706
593 2 705
593 3 707
594 1 707
594 2 705
594 3 709
595 1 708
595 2 703
595 3 709
596 1 703
596 2 707
596 3 709
597 1 709
597 2 705
597 3 710
598 1 705
598 2 711
598 3 1811
599 1 705
599 2 706
599 3 711
600 1 706
600 2 649
600 3 713
601 1 712
601 2 713
601 3 714
602 1 713
602 2 649
602 3 714
603 1 649
603 2 650
603 3 716
604 1 715
604 2 716
604 3 717
605 1 716
605 2 650
605 3 717
606 1 650
606 2 99
606 3 717
607 1 715
607 2 717
607 3 718
608 1 100
608 2 423
608 3 719
609 1 423
609 2 372
609 3 721
610 1 717
610 2 99
610 3 720
611 1 99
611 2 100
611 3 720
612 1 100
612 2 719
612 3 720
613 1 719
613 2 718
613 3 720
614 1 718
614 2 717
614 3 720
615 1 372
615 2 466
615 3 721
616 1 466
616 2 467
616 3 721
617 1 467
617 2 718
617 3 721
618 1 718
618 2 719
618 3 721
619 1 719
619 2 423
619 3 721
620 1 1884
620 2 1752
620 3 123
621 1 718
621 2 467
621 3 722
622 1 467
622 2 331
622 3 722
623 1 715
623 2 718
623 3 723
624 1 718
624 2 722
624 3 723
625 1 714
625 2 649
625 3 1810
626 1 715
626 2 723
626 3 725
627 1 334
627 2 335
627 3 733
628 1 714
628 2 725
628 3 726
629 1 726
629 2 725
629 3 727
630 1 725
630 2 724
630 3 727
631 1 640
631 2 335
631 3 729
632 1 334
632 2 727
632 3 728
633 1 727
633 2 724
633 3 728
634 1 335
634 2 334
634 3 729
635 1 334
635 2 728
635 3 729
636 1 728
636 2 124
636 3 729
637 1 124
637 2 640
637 3 729
638 1 712
638 2 714
638 3 730
639 1 714
639 2 726
639 3 730
640 1 712
640 2 730
640 3 732
641 1 731
641 2 641
641 3 127
642 1 641
642 2 731
642 3 730
643 1 730
643 2 731
643 3 732
644 1 731
644 2 128
644 3 732
645 1 128
645 2 711
645 3 732
646 1 711
646 2 706
646 3 732
647 1 706
647 2 713
647 3 732
648 1 713
648 2 712
648 3 732
649 1 335
649 2 641
649 3 733
650 1 641
650 2 730
650 3 733
651 1 730
651 2 726
651 3 733
652 1 726
652 2 727
652 3 733
653 1 727
653 2 334
653 3 733
654 1 724
654 2 725
654 3 1809
655 1 722
655 2 331
655 3 735
656 1 650
656 2 704
656 3 736
657 1 704
657 2 703
657 3 736
658 1 97
658 2 98
658 3 737
659 1 98
659 2 736
659 3 737
660 1 736
660 2 703
660 3 737
661 1 652
661 2 97
661 3 738
662 1 97
662 2 737
662 3 738
663 1 737
663 2 703
663 3 738
664 1 651
664 2 652
664 3 739
665 1 652
665 2 738
665 3 739
666 1 738
666 2 703
666 3 740
667 1 703
667 2 708
667 3 740
668 1 739
668 2 738
668 3 740
669 1 739
669 2 740
669 3 741
670 1 740
670 2 708
670 3 741
671 1 651
671 2 739
671 3 742
672 1 739
672 2 741
672 3 742
673 1 651
673 2 742
673 3 745
674 1 742
674 2 741
674 3 929
675 1 745
675 2 744
675 3 746
676 1 744
676 2 743
676 3 746
677 1 745
677 2 746
677 3 748
678 1 651
678 2 745
678 3 749
679 1 745
679 2 748
679 3 749
680 1 748
680 2 747
680 3 749
681 1 747
681 2 748
681 3 750
682 1 748
682 2 746
682 3 750
683 1 451
683 2 750
683 3 752
684 1 451
684 2 752
684 3 753
685 1 752
685 2 751
685 3 753
686 1 751
686 2 752
686 3 754
687 1 750
687 2 746
687 3 1806
688 1 754
688 2 743
688 3 774
689 1 751
689 2 754
689 3 757
690 1 751
690 2 757
690 3 760
691 1 756
691 2 776
691 3 1805
692 1 757
692 2 756
692 3 759
693 1 757
693 2 759
693 3 760
694 1 759
694 2 758
694 3 760
695 1 145
695 2 146
695 3 1802
696 1 452
696 2 753
696 3 761
697 1 753
697 2 751
697 3 761
698 1 751
698 2 760
698 3 761
699 1 760
699 2 758
699 3 761
700 1 1885
700 2 771
700 3 144
701 1 762
701 2 758
701 3 763
702 1 758
702 2 759
702 3 763
703 1 762
703 2 763
703 3 764
704 1 763
704 2 755
704 3 764
705 1 762
705 2 764
705 3 765
706 1 143
706 2 765
706 3 766
707 1 441
707 2 766
707 3 767
708 1 766
708 2 765
708 3 767
709 1 765
709 2 764
709 3 767
710 1 767
710 2 764
710 3 768
711 1 764
711 2 755
711 3 768
712 1 769
712 2 766
712 3 770
713 1 766
713 2 769
713 3 143
714 1 766
714 2 441
714 3 770
715 1 441
715 2 442
715 3 770
716 1 442
716 2 769
716 3 770
717 1 762
717 2 765
717 3 771
718 1 765
718 2 772
718 3 771
719 1 771
719 2 772
719 3 144
720 1 772
720 2 765
720 3 143
721 1 758
721 2 762
721 3 773
722 1 762
722 2 771
722 3 773
723 1 1885
723 2 1803
723 3 773
724 1 756
724 2 757
724 3 774
725 1 757
725 2 754
725 3 774
726 1 768
726 2 755
726 3 1801
727 1 756
727 2 774
727 3 775
728 1 774
728 2 743
728 3 775
729 1 756
729 2 775
729 3 776
730 1 775
730 2 743
730 3 777
731 1 743
731 2 744
731 3 777
732 1 775
732 2 777
732 3 779
733 1 776
733 2 775
733 3 780
734 1 775
734 2 779
734 3 780
735 1 779
735 2 778
735 3 780
736 1 780
736 2 778
736 3 782
737 1 776
737 2 780
737 3 783
738 1 780
738 2 782
738 3 783
739 1 779
739 2 777
739 3 786
740 1 785
740 2 786
740 3 787
741 1 786
741 2 777
741 3 787
742 1 777
742 2 744
742 3 787
743 1 744
743 2 741
743 3 787
744 1 708
744 2 709
744 3 789
745 1 785
745 2 787
745 3 788
746 1 787
746 2 741
746 3 788
747 1 709
747 2 710
747 3 789
748 1 710
748 2 788
748 3 789
749 1 788
749 2 741
749 3 789
750 1 741
750 2 708
750 3 789
751 1 1784
751 2 796
751 3 91
752 1 478
752 2 479
752 3 792
753 1 792
753 2 791
753 3 794
754 1 793
754 2 794
754 3 795
755 1 794
755 2 791
755 3 795
756 1 791
756 2 792
756 3 796
757 1 792
757 2 479
757 3 796
758 1 479
758 2 91
758 3 796
759 1 791
759 2 796
759 3 798
760 1 796
760 2 92
760 3 798
761 1 92
761 2 797
761 3 798
762 1 790
762 2 795
762 3 799
763 1 795
763 2 791
763 3 799
764 1 791
764 2 798
764 3 799
765 1 798
765 2 797
765 3 799
766 1 790
766 2 799
766 3 800
767 1 799
767 2 797
767 3 800
768 1 790
768 2 800
768 3 1783
769 1 451
769 2 753
769 3 801
770 1 801
770 2 753
770 3 802
771 1 753
771 2 452
771 3 802
772 1 801
772 2 802
772 3 803
773 1 455
773 2 454
773 3 1775
774 1 803
774 2 802
774 3 1774
775 1 453
775 2 406
775 3 805
776 1 793
776 2 795
776 3 808
777 1 790
777 2 803
777 3 807
778 1 454
778 2 823
778 3 1772
779 1 795
779 2 790
779 3 807
780 1 795
780 2 807
780 3 808
781 1 807
781 2 806
781 3 808
782 1 793
782 2 808
782 3 809
783 1 808
783 2 806
783 3 809
784 1 230
784 2 812
784 3 928
785 1 809
785 2 806
785 3 810
786 1 478
786 2 792
786 3 813
787 1 793
787 2 809
787 3 811
788 1 230
788 2 229
788 3 812
789 1 229
789 2 549
789 3 812
790 1 549
790 2 811
790 3 812
791 1 811
791 2 809
791 3 812
792 1 792
792 2 794
792 3 813
793 1 794
793 2 793
793 3 813
794 1 793
794 2 811
794 3 813
795 1 822
795 2 815
795 3 89
796 1 478
796 2 813
796 3 814
797 1 813
797 2 811
797 3 814
798 1 811
798 2 549
798 3 814
799 1 478
799 2 814
799 3 815
800 1 817
800 2 816
800 3 818
801 1 89
801 2 815
801 3 816
802 1 814
802 2 549
802 3 819
803 1 816
803 2 817
803 3 89
804 1 816
804 2 477
804 3 818
805 1 477
805 2 550
805 3 818
806 1 550
806 2 339
806 3 818
807 1 339
807 2 88
807 3 818
808 1 88
808 2 817
808 3 818
809 1 549
809 2 477
809 3 819
810 1 477
810 2 816
810 3 819
811 1 816
811 2 815
811 3 819
812 1 815
812 2 814
812 3 819
813 1 820
813 2 821
813 3 1771
814 1 479
814 2 821
814 3 90
815 1 810
815 2 806
815 3 823
816 1 810
816 2 825
816 3 231
817 1 810
817 2 823
817 3 824
818 1 825
818 2 826
818 3 827
819 1 825
819 2 810
819 3 824
820 1 824
820 2 826
820 3 825
821 1 826
821 2 824
821 3 232
822 1 826
822 2 232
822 3 827
823 1 232
823 2 342
823 3 827
824 1 342
824 2 341
824 3 827
825 1 231
825 2 825
825 3 1770
826 1 827
826 2 341
826 3 828
827 1 476
827 2 551
827 3 830
828 1 341
828 2 476
828 3 1769
829 1 830
829 2 829
829 3 831
830 1 666
830 2 828
830 3 1768
831 1 831
831 2 829
831 3 832
832 1 326
832 2 922
832 3 923
833 1 830
833 2 551
833 3 834
834 1 829
834 2 830
834 3 834
835 1 833
835 2 834
835 3 835
836 1 834
836 2 551
836 3 835
837 1 551
837 2 346
837 3 835
838 1 833
838 2 835
838 3 837
839 1 835
839 2 346
839 3 839
840 1 833
840 2 837
840 3 838
841 1 837
841 2 836
841 3 838
842 1 836
842 2 837
842 3 839
843 1 837
843 2 835
843 3 839
844 1 839
844 2 346
844 3 840
845 1 318
845 2 840
845 3 841
846 1 841
846 2 840
846 3 842
847 1 346
847 2 347
847 3 843
848 1 347
848 2 552
848 3 843
849 1 552
849 2 473
849 3 843
850 1 473
850 2 842
850 3 843
851 1 842
851 2 840
851 3 843
852 1 840
852 2 346
852 3 843
853 1 841
853 2 842
853 3 858
854 1 497
854 2 240
854 3 845
855 1 473
855 2 1319
855 3 1767
856 1 845
856 2 844
856 3 847
857 1 497
857 2 845
857 3 848
858 1 845
858 2 847
858 3 848
859 1 847
859 2 846
859 3 848
860 1 846
860 2 509
860 3 850
861 1 842
861 2 473
861 3 849
862 1 846
862 2 847
862 3 849
863 1 847
863 2 844
863 3 849
864 1 509
864 2 153
864 3 850
865 1 851
865 2 850
865 3 153
866 1 848
866 2 846
866 3 850
867 1 850
867 2 851
867 3 154
868 1 497
868 2 848
868 3 852
869 1 848
869 2 850
869 3 852
870 1 850
870 2 154
870 3 852
871 1 637
871 2 841
871 3 857
872 1 844
872 2 845
872 3 853
873 1 845
873 2 240
873 3 856
874 1 634
874 2 853
874 3 854
875 1 503
875 2 855
875 3 240
876 1 855
876 2 503
876 3 241
877 1 854
877 2 855
877 3 241
878 1 240
878 2 855
878 3 856
879 1 855
879 2 854
879 3 856
880 1 854
880 2 853
880 3 856
881 1 853
881 2 845
881 3 856
882 1 844
882 2 853
882 3 857
883 1 853
883 2 634
883 3 857
884 1 634
884 2 637
884 3 857
885 1 842
885 2 849
885 3 858
886 1 849
886 2 844
886 3 858
887 1 844
887 2 857
887 3 858
888 1 857
888 2 841
888 3 858
889 1 838
889 2 836
889 3 860
890 1 326
890 2 838
890 3 861
891 1 838
891 2 860
891 3 861
892 1 326
892 2 861
892 3 864
893 1 326
893 2 864
893 3 865
894 1 864
894 2 863
894 3 865
895 1 863
895 2 864
895 3 866
896 1 864
896 2 861
896 3 866
897 1 861
897 2 860
897 3 867
898 1 860
898 2 859
898 3 867
899 1 866
899 2 861
899 3 867
900 1 866
900 2 867
900 3 868
901 1 867
901 2 859
901 3 868
902 1 324
902 2 475
902 3 913
903 1 868
903 2 859
903 3 869
904 1 866
904 2 868
904 3 870
905 1 869
905 2 474
905 3 873
906 1 872
906 2 868
906 3 873
907 1 868
907 2 869
907 3 873
908 1 247
908 2 248
908 3 909
909 1 871
909 2 872
909 3 874
910 1 872
910 2 873
910 3 874
911 1 871
911 2 874
911 3 876
912 1 871
912 2 876
912 3 877
913 1 876
913 2 875
913 3 877
914 1 249
914 2 875
914 3 878
915 1 875
915 2 876
915 3 878
916 1 876
916 2 874
916 3 878
917 1 877
917 2 875
917 3 879
918 1 875
918 2 880
918 3 879
919 1 879
919 2 880
919 3 250
920 1 880
920 2 251
920 3 250
921 1 880
921 2 875
921 3 249
922 1 877
922 2 879
922 3 882
923 1 579
923 2 580
923 3 908
924 1 871
924 2 877
924 3 883
925 1 877
925 2 882
925 3 883
926 1 882
926 2 881
926 3 884
927 1 883
927 2 882
927 3 884
928 1 884
928 2 881
928 3 886
929 1 456
929 2 577
929 3 1765
930 1 883
930 2 884
930 3 887
931 1 884
931 2 886
931 3 887
932 1 886
932 2 885
932 3 887
933 1 871
933 2 883
933 3 1762
934 1 883
934 2 887
934 3 888
935 1 888
935 2 887
935 3 889
936 1 887
936 2 885
936 3 889
937 1 888
937 2 889
937 3 890
938 1 456
938 2 890
938 3 891
939 1 890
939 2 889
939 3 891
940 1 889
940 2 885
940 3 891
941 1 464
941 2 576
941 3 892
942 1 576
942 2 456
942 3 892
943 1 456
943 2 891
943 3 892
944 1 891
944 2 885
944 3 892
945 1 888
945 2 890
945 3 893
946 1 578
946 2 327
946 3 1761
947 1 863
947 2 866
947 3 1760
948 1 862
948 2 893
948 3 894
949 1 577
949 2 578
949 3 895
950 1 464
950 2 892
950 3 897
951 1 885
951 2 886
951 3 896
952 1 536
952 2 530
952 3 898
953 1 892
953 2 885
953 3 897
954 1 885
954 2 896
954 3 897
955 1 896
955 2 533
955 3 897
956 1 533
956 2 464
956 3 897
957 1 530
957 2 533
957 3 898
958 1 533
958 2 896
958 3 898
959 1 536
959 2 898
959 3 899
960 1 896
960 2 886
960 3 900
961 1 881
961 2 901
961 3 903
962 1 886
962 2 881
962 3 900
963 1 881
963 2 899
963 3 900
964 1 899
964 2 898
964 3 900
965 1 898
965 2 896
965 3 900
966 1 881
966 2 882
966 3 901
967 1 879
967 2 250
967 3 902
968 1 250
968 2 579
968 3 902
969 1 579
969 2 901
969 3 902
970 1 901
970 2 882
970 3 902
971 1 882
971 2 879
971 3 902
972 1 899
972 2 881
972 3 903
973 1 899
973 2 903
973 3 905
974 1 903
974 2 447
974 3 904
975 1 447
975 2 411
975 3 904
976 1 903
976 2 904
976 3 905
977 1 260
977 2 536
977 3 906
978 1 536
978 2 899
978 3 906
979 1 899
979 2 905
979 3 906
980 1 905
980 2 904
980 3 906
981 1 904
981 2 411
981 3 907
982 1 411
982 2 259
982 3 907
983 1 259
983 2 260
983 3 907
984 1 260
984 2 906
984 3 907
985 1 906
985 2 904
985 3 907
986 1 580
986 2 447
986 3 908
987 1 447
987 2 903
987 3 908
988 1 903
988 2 901
988 3 908
989 1 901
989 2 579
989 3 908
990 1 248
990 2 249
990 3 909
991 1 249
991 2 878
991 3 909
992 1 475
992 2 247
992 3 910
993 1 247
993 2 909
993 3 910
994 1 874
994 2 873
994 3 911
995 1 873
995 2 474
995 3 911
996 1 910
996 2 909
996 3 911
997 1 909
997 2 878
997 3 911
998 1 878
998 2 874
998 3 911
999 1 475
999 2 910
999 3 912
1000 1 910
1000 2 911
1000 3 912
1001 1 911
1001 2 474
1001 3 912
1002 1 475
1002 2 912
1002 3 913
1003 1 912
1003 2 474
1003 3 913
1004 1 474
1004 2 869
1004 3 913
1005 1 860
1005 2 836
1005 3 917
1006 1 324
1006 2 913
1006 3 915
1007 1 869
1007 2 859
1007 3 916
1008 1 914
1008 2 319
1008 3 915
1009 1 319
1009 2 324
1009 3 915
1010 1 914
1010 2 915
1010 3 916
1011 1 915
1011 2 913
1011 3 916
1012 1 913
1012 2 869
1012 3 916
1013 1 836
1013 2 839
1013 3 918
1014 1 914
1014 2 916
1014 3 917
1015 1 916
1015 2 859
1015 3 917
1016 1 859
1016 2 860
1016 3 917
1017 1 839
1017 2 318
1017 3 918
1018 1 917
1018 2 836
1018 3 918
1019 1 841
1019 2 637
1019 3 921
1020 1 914
1020 2 917
1020 3 920
1021 1 918
1021 2 318
1021 3 919
1022 1 917
1022 2 918
1022 3 920
1023 1 918
1023 2 919
1023 3 920
1024 1 919
1024 2 319
1024 3 920
1025 1 319
1025 2 914
1025 3 920
1026 1 637
1026 2 345
1026 3 921
1027 1 345
1027 2 319
1027 3 921
1028 1 319
1028 2 919
1028 3 921
1029 1 919
1029 2 318
1029 3 921
1030 1 318
1030 2 841
1030 3 921
1031 1 326
1031 2 865
1031 3 922
1032 1 865
1032 2 327
1032 3 922
1033 1 327
1033 2 545
1033 3 922
1034 1 922
1034 2 545
1034 3 923
1035 1 833
1035 2 838
1035 3 924
1036 1 838
1036 2 326
1036 3 924
1037 1 326
1037 2 923
1037 3 924
1038 1 923
1038 2 833
1038 3 924
1039 1 433
1039 2 434
1039 3 927
1040 1 232
1040 2 824
1040 3 925
1041 1 824
1041 2 823
1041 3 926
1042 1 823
1042 2 454
1042 3 926
1043 1 454
1043 2 455
1043 3 926
1044 1 455
1044 2 925
1044 3 926
1045 1 925
1045 2 824
1045 3 926
1046 1 434
1046 2 232
1046 3 927
1047 1 232
1047 2 925
1047 3 927
1048 1 455
1048 2 149
1048 3 1759
1049 1 812
1049 2 809
1049 3 928
1050 1 809
1050 2 810
1050 3 928
1051 1 810
1051 2 231
1051 3 928
1052 1 231
1052 2 230
1052 3 928
1053 1 741
1053 2 744
1053 3 929
1054 1 744
1054 2 745
1054 3 929
1055 1 745
1055 2 742
1055 3 929
1056 1 644
1056 2 647
1056 3 930
1057 1 647
1057 2 48
1057 3 930
1058 1 48
1058 2 281
1058 3 930
1059 1 644
1059 2 930
1059 3 931
1060 1 930
1060 2 932
1060 3 931
1061 1 931
1061 2 932
1061 3 280
1062 1 681
1062 2 692
1062 3 1758
1063 1 932
1063 2 930
1063 3 281
1064 1 932
1064 2 281
1064 3 933
1065 1 1757
1065 2 933
1065 3 281
1066 1 282
1066 2 680
1066 3 1756
1067 1 646
1067 2 645
1067 3 942
1068 1 644
1068 2 931
1068 3 934
1069 1 931
1069 2 280
1069 3 937
1070 1 507
1070 2 217
1070 3 949
1071 1 934
1071 2 931
1071 3 935
1072 1 279
1072 2 490
1072 3 938
1073 1 936
1073 2 935
1073 3 937
1074 1 935
1074 2 931
1074 3 937
1075 1 490
1075 2 936
1075 3 938
1076 1 936
1076 2 937
1076 3 938
1077 1 937
1077 2 280
1077 3 938
1078 1 939
1078 2 938
1078 3 280
1079 1 938
1079 2 939
1079 3 279
1080 1 488
1080 2 279
1080 3 941
1081 1 939
1081 2 280
1081 3 940
1082 1 280
1082 2 932
1082 3 940
1083 1 932
1083 2 933
1083 3 940
1084 1 279
1084 2 939
1084 3 941
1085 1 939
1085 2 940
1085 3 941
1086 1 940
1086 2 692
1086 3 941
1087 1 692
1087 2 488
1087 3 941
1088 1 645
1088 2 644
1088 3 942
1089 1 644
1089 2 934
1089 3 942
1090 1 934
1090 2 215
1090 3 942
1091 1 215
1091 2 646
1091 3 942
1092 1 215
1092 2 934
1092 3 943
1093 1 934
1093 2 935
1093 3 947
1094 1 220
1094 2 219
1094 3 946
1095 1 943
1095 2 947
1095 3 948
1096 1 219
1096 2 507
1096 3 946
1097 1 507
1097 2 945
1097 3 946
1098 1 945
1098 2 944
1098 3 946
1099 1 944
1099 2 221
1099 3 946
1100 1 221
1100 2 220
1100 3 946
1101 1 943
1101 2 934
1101 3 947
1102 1 947
1102 2 935
1102 3 948
1103 1 935
1103 2 936
1103 3 948
1104 1 936
1104 2 489
1104 3 948
1105 1 944
1105 2 945
1105 3 948
1106 1 945
1106 2 943
1106 3 948
1107 1 1755
1107 2 949
1107 3 217
1108 1 215
1108 2 943
1108 3 949
1109 1 943
1109 2 945
1109 3 949
1110 1 945
1110 2 507
1110 3 949
1111 1 118
1111 2 119
1111 3 950
1112 1 119
1112 2 643
1112 3 950
1113 1 643
1113 2 642
1113 3 950
1114 1 955
1114 2 1498
1114 3 117
1115 1 950
1115 2 642
1115 3 951
1116 1 118
1116 2 950
1116 3 952
1117 1 950
1117 2 951
1117 3 952
1118 1 427
1118 2 428
1118 3 953
1119 1 428
1119 2 353
1119 3 954
1120 1 426
1120 2 952
1120 3 953
1121 1 952
1121 2 951
1121 3 953
1122 1 951
1122 2 427
1122 3 953
1123 1 426
1123 2 953
1123 3 954
1124 1 953
1124 2 428
1124 3 954
1125 1 956
1125 2 955
1125 3 117
1126 1 952
1126 2 426
1126 3 955
1127 1 956
1127 2 952
1127 3 955
1128 1 952
1128 2 956
1128 3 118
1129 1 547
1129 2 427
1129 3 957
1130 1 427
1130 2 951
1130 3 957
1131 1 951
1131 2 642
1131 3 957
1132 1 957
1132 2 642
1132 3 959
1133 1 642
1133 2 643
1133 3 960
1134 1 958
1134 2 959
1134 3 960
1135 1 959
1135 2 642
1135 3 960
1136 1 962
1136 2 643
1136 3 120
1137 1 961
1137 2 1754
1137 3 960
1138 1 960
1138 2 643
1138 3 961
1139 1 961
1139 2 962
1139 3 121
1140 1 643
1140 2 962
1140 3 961
1141 1 547
1141 2 957
1141 3 963
1142 1 546
1142 2 963
1142 3 964
1143 1 963
1143 2 957
1143 3 964
1144 1 957
1144 2 959
1144 3 964
1145 1 959
1145 2 958
1145 3 964
1146 1 546
1146 2 964
1146 3 966
1147 1 958
1147 2 960
1147 3 1753
1148 1 980
1148 2 977
1148 3 108
1149 1 546
1149 2 966
1149 3 967
1150 1 965
1150 2 973
1150 3 974
1151 1 965
1151 2 966
1151 3 968
1152 1 966
1152 2 964
1152 3 969
1153 1 964
1153 2 958
1153 3 969
1154 1 968
1154 2 966
1154 3 969
1155 1 734
1155 2 735
1155 3 1749
1156 1 965
1156 2 968
1156 3 972
1157 1 970
1157 2 971
1157 3 123
1158 1 972
1158 2 1750
1158 3 971
1159 1 971
1159 2 970
1159 3 972
1160 1 965
1160 2 972
1160 3 973
1161 1 972
1161 2 970
1161 3 973
1162 1 331
1162 2 467
1162 3 976
1163 1 967
1163 2 966
1163 3 975
1164 1 966
1164 2 965
1164 3 975
1165 1 965
1165 2 974
1165 3 975
1166 1 467
1166 2 332
1166 3 976
1167 1 480
1167 2 967
1167 3 1748
1168 1 974
1168 2 331
1168 3 976
1169 1 547
1169 2 546
1169 3 977
1170 1 546
1170 2 967
1170 3 977
1171 1 480
1171 2 107
1171 3 979
1172 1 977
1172 2 978
1172 3 108
1173 1 107
1173 2 978
1173 3 979
1174 1 978
1174 2 977
1174 3 979
1175 1 977
1175 2 967
1175 3 979
1176 1 967
1176 2 480
1176 3 979
1177 1 547
1177 2 977
1177 3 981
1178 1 977
1178 2 980
1178 3 981
1179 1 980
1179 2 109
1179 3 981
1180 1 243
1180 2 636
1180 3 982
1181 1 634
1181 2 854
1181 3 983
1182 1 854
1182 2 241
1182 3 983
1183 1 241
1183 2 521
1183 3 983
1184 1 521
1184 2 982
1184 3 983
1185 1 982
1185 2 636
1185 3 983
1186 1 636
1186 2 634
1186 3 983
1187 1 628
1187 2 629
1187 3 985
1188 1 633
1188 2 632
1188 3 986
1189 1 629
1189 2 633
1189 3 985
1190 1 984
1190 2 985
1190 3 986
1191 1 985
1191 2 633
1191 3 986
1192 1 984
1192 2 986
1192 3 987
1193 1 986
1193 2 632
1193 3 987
1194 1 984
1194 2 987
1194 3 989
1195 1 984
1195 2 989
1195 3 998
1196 1 989
1196 2 988
1196 3 991
1197 1 525
1197 2 500
1197 3 993
1198 1 609
1198 2 1716
1198 3 1747
1199 1 991
1199 2 988
1199 3 992
1200 1 500
1200 2 608
1200 3 997
1201 1 524
1201 2 525
1201 3 994
1202 1 525
1202 2 993
1202 3 994
1203 1 993
1203 2 992
1203 3 994
1204 1 994
1204 2 992
1204 3 996
1205 1 524
1205 2 994
1205 3 996
1206 1 608
1206 2 610
1206 3 997
1207 1 610
1207 2 609
1207 3 997
1208 1 609
1208 2 993
1208 3 997
1209 1 993
1209 2 500
1209 3 997
1210 1 989
1210 2 991
1210 3 998
1211 1 991
1211 2 990
1211 3 998
1212 1 988
1212 2 989
1212 3 1001
1213 1 989
1213 2 987
1213 3 1000
1214 1 631
1214 2 999
1214 3 1000
1215 1 989
1215 2 1000
1215 3 1001
1216 1 1000
1216 2 999
1216 3 1001
1217 1 995
1217 2 996
1217 3 1010
1218 1 988
1218 2 1001
1218 3 1002
1219 1 1001
1219 2 999
1219 3 1002
1220 1 506
1220 2 70
1220 3 1022
1221 1 1002
1221 2 999
1221 3 1004
1222 1 1004
1222 2 1003
1222 3 1006
1223 1 1883
1223 2 1024
1223 3 70
1224 1 1005
1224 2 1002
1224 3 1006
1225 1 1002
1225 2 1004
1225 3 1006
1226 1 1005
1226 2 1006
1226 3 1007
1227 1 1004
1227 2 999
1227 3 1009
1228 1 999
1228 2 631
1228 3 1009
1229 1 631
1229 2 1008
1229 3 1009
1230 1 1008
1230 2 1003
1230 3 1009
1231 1 1003
1231 2 1004
1231 3 1009
1232 1 996
1232 2 992
1232 3 1010
1233 1 992
1233 2 988
1233 3 1010
1234 1 988
1234 2 1002
1234 3 1010
1235 1 1002
1235 2 1005
1235 3 1010
1236 1 1005
1236 2 995
1236 3 1010
1237 1 62
1237 2 484
1237 3 1013
1238 1 631
1238 2 1000
1238 3 1879
1239 1 1016
1239 2 1015
1239 3 1014
1240 1 62
1240 2 1013
1240 3 1015
1241 1 1013
1241 2 1012
1241 3 1015
1242 1 1015
1242 2 1016
1242 3 62
1243 1 1012
1243 2 1013
1243 3 1017
1244 1 1013
1244 2 484
1244 3 1017
1245 1 484
1245 2 506
1245 3 1017
1246 1 1014
1246 2 1015
1246 3 1020
1247 1 1012
1247 2 1021
1247 3 1880
1248 1 1015
1248 2 1012
1248 3 1019
1249 1 1015
1249 2 1019
1249 3 1020
1250 1 1019
1250 2 1018
1250 3 1020
1251 1 1012
1251 2 1017
1251 3 1021
1252 1 1007
1252 2 1006
1252 3 1024
1253 1 1021
1253 2 1017
1253 3 1023
1254 1 1017
1254 2 506
1254 3 1023
1255 1 506
1255 2 1022
1255 3 1023
1256 1 1003
1256 2 1008
1256 3 1746
1257 1 1006
1257 2 1003
1257 3 1024
1258 1 1003
1258 2 1022
1258 3 1024
1259 1 1022
1259 2 70
1259 3 1024
1260 1 633
1260 2 629
1260 3 1088
1261 1 293
1261 2 295
1261 3 1026
1262 1 383
1262 2 404
1262 3 1027
1263 1 404
1263 2 293
1263 3 1027
1264 1 293
1264 2 1026
1264 3 1027
1265 1 383
1265 2 1027
1265 3 1028
1266 1 1027
1266 2 1026
1266 3 1028
1267 1 1026
1267 2 1025
1267 3 1028
1268 1 632
1268 2 633
1268 3 1029
1269 1 1028
1269 2 1025
1269 3 1029
1270 1 1029
1270 2 1025
1270 3 1031
1271 1 1025
1271 2 1026
1271 3 1078
1272 1 632
1272 2 1029
1272 3 1032
1273 1 1029
1273 2 1031
1273 3 1032
1274 1 1031
1274 2 1030
1274 3 1032
1275 1 1032
1275 2 1030
1275 3 1033
1276 1 1033
1276 2 1030
1276 3 1035
1277 1 631
1277 2 1033
1277 3 1073
1278 1 1035
1278 2 1034
1278 3 1037
1279 1 1011
1279 2 1021
1279 3 1071
1280 1 1033
1280 2 1035
1280 3 1037
1281 1 1036
1281 2 1037
1281 3 1038
1282 1 1037
1282 2 1034
1282 3 1038
1283 1 1038
1283 2 1034
1283 3 1040
1284 1 1011
1284 2 1038
1284 3 1040
1285 1 1040
1285 2 1034
1285 3 1042
1286 1 1042
1286 2 1034
1286 3 1043
1287 1 1034
1287 2 1035
1287 3 1043
1288 1 1039
1288 2 1040
1288 3 1044
1289 1 1040
1289 2 1042
1289 3 1044
1290 1 1039
1290 2 1044
1290 3 1047
1291 1 485
1291 2 1045
1291 3 1046
1292 1 1044
1292 2 1041
1292 3 1046
1293 1 1044
1293 2 1046
1293 3 1047
1294 1 1046
1294 2 1045
1294 3 1047
1295 1 1039
1295 2 1047
1295 3 1048
1296 1 1047
1296 2 1045
1296 3 1048
1297 1 676
1297 2 60
1297 3 1069
1298 1 61
1298 2 1014
1298 3 1050
1299 1 1018
1299 2 1048
1299 3 1049
1300 1 1014
1300 2 1020
1300 3 1050
1301 1 1020
1301 2 1018
1301 3 1050
1302 1 1018
1302 2 1049
1302 3 1050
1303 1 1049
1303 2 61
1303 3 1050
1304 1 61
1304 2 1049
1304 3 1051
1305 1 670
1305 2 676
1305 3 1052
1306 1 676
1306 2 1051
1306 3 1052
1307 1 670
1307 2 1052
1307 3 1054
1308 1 668
1308 2 671
1308 3 1055
1309 1 671
1309 2 670
1309 3 1055
1310 1 670
1310 2 1054
1310 3 1055
1311 1 1054
1311 2 1053
1311 3 1055
1312 1 1051
1312 2 1049
1312 3 1066
1313 1 1053
1313 2 1054
1313 3 1056
1314 1 1054
1314 2 1052
1314 3 1056
1315 1 686
1315 2 668
1315 3 1057
1316 1 668
1316 2 1055
1316 3 1057
1317 1 1055
1317 2 1053
1317 3 1057
1318 1 1053
1318 2 683
1318 3 1057
1319 1 682
1319 2 679
1319 3 1058
1320 1 679
1320 2 686
1320 3 1058
1321 1 686
1321 2 1057
1321 3 1058
1322 1 1057
1322 2 683
1322 3 1058
1323 1 1053
1323 2 1056
1323 3 1059
1324 1 1056
1324 2 1045
1324 3 1059
1325 1 1045
1325 2 485
1325 3 1059
1326 1 692
1326 2 681
1326 3 1061
1327 1 683
1327 2 1053
1327 3 1060
1328 1 1053
1328 2 1059
1328 3 1060
1329 1 1059
1329 2 485
1329 3 1060
1330 1 681
1330 2 682
1330 3 1065
1331 1 683
1331 2 1060
1331 3 1061
1332 1 486
1332 2 488
1332 3 1062
1333 1 488
1333 2 692
1333 3 1062
1334 1 692
1334 2 1061
1334 3 1062
1335 1 486
1335 2 1062
1335 3 1063
1336 1 1062
1336 2 1061
1336 3 1063
1337 1 1061
1337 2 1060
1337 3 1063
1338 1 1060
1338 2 485
1338 3 1063
1339 1 486
1339 2 1063
1339 3 1064
1340 1 682
1340 2 1058
1340 3 1065
1341 1 1058
1341 2 683
1341 3 1065
1342 1 683
1342 2 1061
1342 3 1065
1343 1 1061
1343 2 681
1343 3 1065
1344 1 1049
1344 2 1048
1344 3 1067
1345 1 1056
1345 2 1052
1345 3 1066
1346 1 1052
1346 2 1051
1346 3 1066
1347 1 1048
1347 2 1045
1347 3 1067
1348 1 1045
1348 2 1056
1348 3 1067
1349 1 1056
1349 2 1066
1349 3 1067
1350 1 1066
1350 2 1049
1350 3 1067
1351 1 1051
1351 2 1068
1351 3 61
1352 1 60
1352 2 1068
1352 3 1069
1353 1 1068
1353 2 1051
1353 3 1069
1354 1 1051
1354 2 676
1354 3 1069
1355 1 1011
1355 2 1040
1355 3 1070
1356 1 1040
1356 2 1039
1356 3 1070
1357 1 1039
1357 2 1048
1357 3 1070
1358 1 1048
1358 2 1018
1358 3 1070
1359 1 1018
1359 2 1019
1359 3 1070
1360 1 1036
1360 2 1038
1360 3 1071
1361 1 1038
1361 2 1011
1361 3 1071
1362 1 1036
1362 2 1071
1362 3 1072
1363 1 1071
1363 2 1021
1363 3 1072
1364 1 1021
1364 2 1023
1364 3 1072
1365 1 1033
1365 2 1037
1365 3 1073
1366 1 1037
1366 2 1036
1366 3 1073
1367 1 1072
1367 2 1008
1367 3 1074
1368 1 1008
1368 2 631
1368 3 1073
1369 1 1008
1369 2 1073
1369 3 1074
1370 1 1073
1370 2 1036
1370 3 1074
1371 1 1036
1371 2 1072
1371 3 1074
1372 1 1043
1372 2 1035
1372 3 1086
1373 1 1031
1373 2 1025
1373 3 1076
1374 1 1030
1374 2 1031
1374 3 1077
1375 1 1031
1375 2 1076
1375 3 1077
1376 1 1076
1376 2 1075
1376 3 1077
1377 1 1026
1377 2 295
1377 3 1078
1378 1 295
1378 2 296
1378 3 1078
1379 1 1075
1379 2 1076
1379 3 1078
1380 1 1076
1380 2 1025
1380 3 1078
1381 1 1041
1381 2 1044
1381 3 1085
1382 1 1077
1382 2 1075
1382 3 1079
1383 1 1042
1383 2 1043
1383 3 1080
1384 1 1043
1384 2 1079
1384 3 1080
1385 1 298
1385 2 277
1385 3 1084
1386 1 487
1386 2 486
1386 3 1083
1387 1 1064
1387 2 1063
1387 3 1745
1388 1 1080
1388 2 1079
1388 3 1081
1389 1 1080
1389 2 1081
1389 3 1082
1390 1 486
1390 2 1064
1390 3 1083
1391 1 1064
1391 2 1082
1391 3 1083
1392 1 1082
1392 2 1081
1392 3 1083
1393 1 277
1393 2 487
1393 3 1084
1394 1 487
1394 2 1083
1394 3 1084
1395 1 1083
1395 2 1081
1395 3 1084
1396 1 1079
1396 2 297
1396 3 1743
1397 1 1044
1397 2 1042
1397 3 1085
1398 1 1042
1398 2 1080
1398 3 1085
1399 1 1080
1399 2 1082
1399 3 1085
1400 1 1082
1400 2 1041
1400 3 1085
1401 1 1035
1401 2 1030
1401 3 1086
1402 1 1030
1402 2 1077
1402 3 1086
1403 1 1077
1403 2 1079
1403 3 1086
1404 1 1079
1404 2 1043
1404 3 1086
1405 1 297
1405 2 1079
1405 3 1087
1406 1 1079
1406 2 1075
1406 3 1087
1407 1 1075
1407 2 1078
1407 3 1087
1408 1 1078
1408 2 296
1408 3 1087
1409 1 629
1409 2 383
1409 3 1088
1410 1 383
1410 2 1028
1410 3 1088
1411 1 1028
1411 2 1029
1411 3 1088
1412 1 1029
1412 2 633
1412 3 1088
1413 1 502
1413 2 523
1413 3 1089
1414 1 523
1414 2 623
1414 3 1089
1415 1 623
1415 2 618
1415 3 1090
1416 1 618
1416 2 21
1416 3 1090
1417 1 1091
1417 2 1090
1417 3 21
1418 1 1089
1418 2 623
1418 3 1090
1419 1 1090
1419 2 1091
1419 3 22
1420 1 617
1420 2 623
1420 3 1092
1421 1 623
1421 2 523
1421 3 1092
1422 1 523
1422 2 308
1422 3 1092
1423 1 621
1423 2 622
1423 3 1097
1424 1 617
1424 2 1092
1424 3 1096
1425 1 1092
1425 2 308
1425 3 1094
1426 1 1093
1426 2 1094
1426 3 1095
1427 1 1092
1427 2 1094
1427 3 1096
1428 1 1094
1428 2 1093
1428 3 1096
1429 1 622
1429 2 617
1429 3 1096
1430 1 622
1430 2 1096
1430 3 1097
1431 1 1096
1431 2 1093
1431 3 1097
1432 1 621
1432 2 1097
1432 3 1098
1433 1 1097
1433 2 1093
1433 3 1098
1434 1 537
1434 2 538
1434 3 1127
1435 1 1095
1435 2 30
1435 3 1732
1436 1 538
1436 2 39
1436 3 1125
1437 1 381
1437 2 41
1437 3 1102
1438 1 1101
1438 2 1102
1438 3 1103
1439 1 1102
1439 2 41
1439 3 1103
1440 1 41
1440 2 42
1440 3 1103
1441 1 1104
1441 2 1103
1441 3 42
1442 1 1103
1442 2 1104
1442 3 43
1443 1 1101
1443 2 1103
1443 3 1124
1444 1 1103
1444 2 43
1444 3 1106
1445 1 1105
1445 2 1106
1445 3 1108
1446 1 1108
1446 2 1107
1446 3 1109
1447 1 1107
1447 2 1108
1447 3 1112
1448 1 1106
1448 2 43
1448 3 1111
1449 1 43
1449 2 44
1449 3 1111
1450 1 1108
1450 2 1106
1450 3 1111
1451 1 1108
1451 2 1111
1451 3 1112
1452 1 1111
1452 2 1110
1452 3 1112
1453 1 1107
1453 2 1112
1453 3 1113
1454 1 1112
1454 2 1110
1454 3 1113
1455 1 1113
1455 2 638
1455 3 1115
1456 1 1109
1456 2 1107
1456 3 1117
1457 1 1115
1457 2 1114
1457 3 1119
1458 1 1099
1458 2 1109
1458 3 1118
1459 1 1109
1459 2 1117
1459 3 1118
1460 1 1117
1460 2 1116
1460 3 1118
1461 1 1116
1461 2 1117
1461 3 1119
1462 1 1117
1462 2 1107
1462 3 1119
1463 1 1107
1463 2 1113
1463 3 1119
1464 1 1113
1464 2 1115
1464 3 1119
1465 1 1118
1465 2 1116
1465 3 1120
1466 1 1118
1466 2 1120
1466 3 1121
1467 1 1120
1467 2 620
1467 3 1121
1468 1 620
1468 2 1120
1468 3 1122
1469 1 1116
1469 2 1119
1469 3 1734
1470 1 1105
1470 2 1108
1470 3 1123
1471 1 1108
1471 2 1109
1471 3 1123
1472 1 1109
1472 2 1099
1472 3 1123
1473 1 1103
1473 2 1106
1473 3 1124
1474 1 1106
1474 2 1105
1474 3 1124
1475 1 39
1475 2 381
1475 3 1125
1476 1 381
1476 2 1102
1476 3 1125
1477 1 1102
1477 2 1101
1477 3 1125
1478 1 1105
1478 2 1123
1478 3 1733
1479 1 538
1479 2 1125
1479 3 1126
1480 1 1125
1480 2 1101
1480 3 1126
1481 1 538
1481 2 1126
1481 3 1127
1482 1 1126
1482 2 1100
1482 3 1127
1483 1 537
1483 2 1127
1483 3 1128
1484 1 1127
1484 2 1100
1484 3 1128
1485 1 1098
1485 2 1093
1485 3 1731
1486 1 1128
1486 2 1100
1486 3 1129
1487 1 1100
1487 2 1099
1487 3 1129
1488 1 1128
1488 2 1129
1488 3 1130
1489 1 1121
1489 2 1140
1489 3 1730
1490 1 1130
1490 2 1129
1490 3 1131
1491 1 1099
1491 2 1118
1491 3 1729
1492 1 613
1492 2 619
1492 3 1133
1493 1 619
1493 2 622
1493 3 1133
1494 1 622
1494 2 1132
1494 3 1133
1495 1 1132
1495 2 622
1495 3 1134
1496 1 622
1496 2 621
1496 3 1134
1497 1 1134
1497 2 621
1497 3 1137
1498 1 1132
1498 2 1134
1498 3 1138
1499 1 1134
1499 2 1137
1499 3 1138
1500 1 1137
1500 2 1136
1500 3 1138
1501 1 1136
1501 2 1618
1501 3 1626
1502 1 1121
1502 2 620
1502 3 1140
1503 1 1136
1503 2 1137
1503 3 1139
1504 1 620
1504 2 1139
1504 3 1140
1505 1 621
1505 2 1098
1505 3 1728
1506 1 5
1506 2 6
1506 3 1141
1507 1 6
1507 2 606
1507 3 1141
1508 1 606
1508 2 413
1508 3 1141
1509 1 413
1509 2 4
1509 3 1141
1510 1 219
1510 2 220
1510 3 1162
1511 1 412
1511 2 606
1511 3 1143
1512 1 599
1512 2 598
1512 3 1161
1513 1 1143
1513 2 1142
1513 3 1145
1514 1 412
1514 2 1143
1514 3 1146
1515 1 1143
1515 2 1145
1515 3 1146
1516 1 1145
1516 2 1144
1516 3 1146
1517 1 493
1517 2 218
1517 3 1149
1518 1 1144
1518 2 1145
1518 3 1147
1519 1 1145
1519 2 1142
1519 3 1147
1520 1 1144
1520 2 1147
1520 3 1148
1521 1 1149
1521 2 1865
1521 3 1148
1522 1 1148
1522 2 1147
1522 3 1149
1523 1 492
1523 2 493
1523 3 1878
1524 1 1147
1524 2 1142
1524 3 1151
1525 1 1149
1525 2 1147
1525 3 1152
1526 1 1147
1526 2 1151
1526 3 1152
1527 1 1151
1527 2 1150
1527 3 1152
1528 1 491
1528 2 1388
1528 3 1389
1529 1 1151
1529 2 1142
1529 3 1154
1530 1 1153
1530 2 1154
1530 3 1155
1531 1 1158
1531 2 606
1531 3 6
1532 1 7
1532 2 1155
1532 3 1156
1533 1 1155
1533 2 1154
1533 3 1157
1534 1 1143
1534 2 606
1534 3 1156
1535 1 1154
1535 2 1142
1535 3 1157
1536 1 1142
1536 2 1143
1536 3 1157
1537 1 1143
1537 2 1156
1537 3 1157
1538 1 1156
1538 2 1155
1538 3 1157
1539 1 1156
1539 2 1158
1539 3 7
1540 1 606
1540 2 1158
1540 3 1156
1541 1 1153
1541 2 1155
1541 3 1159
1542 1 1155
1542 2 7
1542 3 1159
1543 1 1160
1543 2 1159
1543 3 7
1544 1 1159
1544 2 1160
1544 3 8
1545 1 598
1545 2 412
1545 3 1161
1546 1 412
1546 2 1146
1546 3 1161
1547 1 1146
1547 2 599
1547 3 1161
1548 1 599
1548 2 1146
1548 3 1163
1549 1 1144
1549 2 1148
1549 3 1162
1550 1 1148
1550 2 219
1550 3 1162
1551 1 1146
1551 2 1144
1551 3 1163
1552 1 1144
1552 2 1162
1552 3 1163
1553 1 222
1553 2 223
1553 3 1164
1554 1 223
1554 2 599
1554 3 1164
1555 1 599
1555 2 1163
1555 3 1164
1556 1 378
1556 2 290
1556 3 1727
1557 1 605
1557 2 604
1557 3 1165
1558 1 301
1558 2 673
1558 3 1425
1559 1 378
1559 2 1165
1559 3 1166
1560 1 416
1560 2 302
1560 3 1166
1561 1 415
1561 2 416
1561 3 1167
1562 1 416
1562 2 1166
1562 3 1167
1563 1 1166
1563 2 1165
1563 3 1167
1564 1 415
1564 2 1167
1564 3 1168
1565 1 1167
1565 2 1165
1565 3 1168
1566 1 1165
1566 2 604
1566 3 1168
1567 1 1168
1567 2 604
1567 3 1169
1568 1 563
1568 2 461
1568 3 1171
1569 1 414
1569 2 1437
1569 3 1726
1570 1 563
1570 2 1171
1570 3 1172
1571 1 1171
1571 2 1170
1571 3 1172
1572 1 1171
1572 2 461
1572 3 1174
1573 1 1170
1573 2 1171
1573 3 1174
1574 1 1174
1574 2 461
1574 3 1175
1575 1 461
1575 2 1246
1575 3 1724
1576 1 562
1576 2 563
1576 3 1176
1577 1 563
1577 2 1172
1577 3 1176
1578 1 1176
1578 2 1172
1578 3 1177
1579 1 394
1579 2 288
1579 3 1723
1580 1 1178
1580 2 605
1580 3 1179
1581 1 605
1581 2 394
1581 3 1179
1582 1 590
1582 2 351
1582 3 1180
1583 1 351
1583 2 597
1583 3 1180
1584 1 597
1584 2 596
1584 3 1180
1585 1 596
1585 2 431
1585 3 1180
1586 1 595
1586 2 597
1586 3 1181
1587 1 597
1587 2 351
1587 3 1182
1588 1 351
1588 2 352
1588 3 1182
1589 1 352
1589 2 430
1589 3 1182
1590 1 1181
1590 2 597
1590 3 1182
1591 1 595
1591 2 1181
1591 3 1184
1592 1 166
1592 2 432
1592 3 1187
1593 1 595
1593 2 1184
1593 3 1185
1594 1 1184
1594 2 1183
1594 3 1185
1595 1 1183
1595 2 1190
1595 3 1201
1596 1 1183
1596 2 1184
1596 3 1186
1597 1 1184
1597 2 1181
1597 3 1186
1598 1 432
1598 2 596
1598 3 1187
1599 1 596
1599 2 595
1599 3 1187
1600 1 595
1600 2 1185
1600 3 1187
1601 1 1185
1601 2 165
1601 3 1187
1602 1 165
1602 2 166
1602 3 1187
1603 1 1183
1603 2 1186
1603 3 1189
1604 1 1183
1604 2 1189
1604 3 1190
1605 1 1189
1605 2 1188
1605 3 1190
1606 1 1198
1606 2 1197
1606 3 496
1607 1 1188
1607 2 1189
1607 3 1191
1608 1 1189
1608 2 1186
1608 3 1191
1609 1 495
1609 2 162
1609 3 1709
1610 1 1188
1610 2 1191
1610 3 1192
1611 1 1191
1611 2 1194
1611 3 1195
1612 1 1191
1612 2 1186
1612 3 1194
1613 1 1181
1613 2 1182
1613 3 1200
1614 1 1194
1614 2 1193
1614 3 1195
1615 1 1192
1615 2 1191
1615 3 1708
1616 1 1193
1616 2 1194
1616 3 1196
1617 1 1194
1617 2 1186
1617 3 1196
1618 1 1186
1618 2 1181
1618 3 1196
1619 1 1190
1619 2 1188
1619 3 1197
1620 1 1190
1620 2 1198
1620 3 164
1621 1 1198
1621 2 496
1621 3 163
1622 1 1197
1622 2 1198
1622 3 1190
1623 1 496
1623 2 1197
1623 3 1199
1624 1 1197
1624 2 1188
1624 3 1199
1625 1 1188
1625 2 1192
1625 3 1199
1626 1 1192
1626 2 494
1626 3 1199
1627 1 1182
1627 2 430
1627 3 1200
1628 1 430
1628 2 1196
1628 3 1200
1629 1 1196
1629 2 1181
1629 3 1200
1630 1 1190
1630 2 164
1630 3 1201
1631 1 1202
1631 2 1201
1631 3 164
1632 1 165
1632 2 1185
1632 3 1201
1633 1 1185
1633 2 1183
1633 3 1201
1634 1 1201
1634 2 1202
1634 3 165
1635 1 1203
1635 2 139
1635 3 140
1636 1 592
1636 2 594
1636 3 1204
1637 1 442
1637 2 441
1637 3 1204
1638 1 441
1638 2 767
1638 3 1209
1639 1 783
1639 2 782
1639 3 1207
1640 1 768
1640 2 783
1640 3 1206
1641 1 782
1641 2 781
1641 3 1207
1642 1 1206
1642 2 783
1642 3 1207
1643 1 1205
1643 2 1206
1643 3 1208
1644 1 1206
1644 2 1207
1644 3 1208
1645 1 1207
1645 2 781
1645 3 1208
1646 1 767
1646 2 768
1646 3 1209
1647 1 768
1647 2 1206
1647 3 1209
1648 1 1206
1648 2 1205
1648 3 1209
1649 1 1205
1649 2 1204
1649 3 1209
1650 1 1204
1650 2 441
1650 3 1209
1651 1 142
1651 2 442
1651 3 1210
1652 1 442
1652 2 1204
1652 3 1210
1653 1 1204
1653 2 594
1653 3 1210
1654 1 594
1654 2 1203
1654 3 1210
1655 1 1203
1655 2 141
1655 3 1210
1656 1 437
1656 2 591
1656 3 1211
1657 1 591
1657 2 443
1657 3 1211
1658 1 443
1658 2 438
1658 3 1211
1659 1 587
1659 2 589
1659 3 1212
1660 1 590
1660 2 588
1660 3 1212
1661 1 352
1661 2 351
1661 3 1213
1662 1 351
1662 2 590
1662 3 1213
1663 1 1212
1663 2 589
1663 3 1214
1664 1 183
1664 2 184
1664 3 1213
1665 1 183
1665 2 1213
1665 3 1214
1666 1 1213
1666 2 590
1666 3 1214
1667 1 590
1667 2 1212
1667 3 1214
1668 1 583
1668 2 582
1668 3 1215
1669 1 582
1669 2 587
1669 3 1215
1670 1 587
1670 2 585
1670 3 1215
1671 1 585
1671 2 584
1671 3 1215
1672 1 169
1672 2 584
1672 3 1216
1673 1 584
1673 2 585
1673 3 1216
1674 1 585
1674 2 167
1674 3 1216
1675 1 167
1675 2 168
1675 3 1216
1676 1 407
1676 2 253
1676 3 1217
1677 1 253
1677 2 580
1677 3 1217
1678 1 580
1678 2 579
1678 3 1217
1679 1 579
1679 2 250
1679 3 1217
1680 1 250
1680 2 408
1680 3 1217
1681 1 273
1681 2 328
1681 3 1218
1682 1 328
1682 2 578
1682 3 1218
1683 1 578
1683 2 577
1683 3 1218
1684 1 577
1684 2 382
1684 3 1218
1685 1 570
1685 2 569
1685 3 1220
1686 1 200
1686 2 570
1686 3 1221
1687 1 570
1687 2 1220
1687 3 1221
1688 1 1220
1688 2 1219
1688 3 1221
1689 1 1219
1689 2 1220
1689 3 1222
1690 1 564
1690 2 567
1690 3 1223
1691 1 567
1691 2 565
1691 3 1223
1692 1 565
1692 2 1222
1692 3 1223
1693 1 1222
1693 2 1220
1693 3 1224
1694 1 1220
1694 2 569
1694 3 1224
1695 1 1223
1695 2 1222
1695 3 1224
1696 1 1219
1696 2 1222
1696 3 1227
1697 1 1222
1697 2 565
1697 3 1226
1698 1 565
1698 2 254
1698 3 1226
1699 1 254
1699 2 1225
1699 3 1226
1700 1 1222
1700 2 1226
1700 3 1227
1701 1 1226
1701 2 1225
1701 3 1227
1702 1 199
1702 2 200
1702 3 1707
1703 1 450
1703 2 448
1703 3 1229
1704 1 1225
1704 2 254
1704 3 1233
1705 1 253
1705 2 407
1705 3 1230
1706 1 407
1706 2 450
1706 3 1230
1707 1 450
1707 2 1229
1707 3 1230
1708 1 1229
1708 2 1228
1708 3 1230
1709 1 1228
1709 2 1229
1709 3 1231
1710 1 1229
1710 2 448
1710 3 1231
1711 1 448
1711 2 449
1711 3 1231
1712 1 1225
1712 2 1233
1712 3 1706
1713 1 1228
1713 2 1231
1713 3 1232
1714 1 254
1714 2 253
1714 3 1233
1715 1 253
1715 2 1230
1715 3 1233
1716 1 1230
1716 2 1228
1716 3 1233
1717 1 201
1717 2 202
1717 3 1235
1718 1 570
1718 2 201
1718 3 1236
1719 1 201
1719 2 1235
1719 3 1236
1720 1 569
1720 2 570
1720 3 1239
1721 1 1236
1721 2 1235
1721 3 1237
1722 1 1235
1722 2 1234
1722 3 1237
1723 1 1173
1723 2 1174
1723 3 1701
1724 1 1237
1724 2 1234
1724 3 1238
1725 1 570
1725 2 1236
1725 3 1239
1726 1 1236
1726 2 1237
1726 3 1239
1727 1 1235
1727 2 202
1727 3 1241
1728 1 658
1728 2 660
1728 3 1699
1729 1 1234
1729 2 1235
1729 3 1242
1730 1 1235
1730 2 1241
1730 3 1242
1731 1 1241
1731 2 1240
1731 3 1242
1732 1 1234
1732 2 1242
1732 3 1243
1733 1 1240
1733 2 1241
1733 3 1244
1734 1 202
1734 2 659
1734 3 1245
1735 1 659
1735 2 658
1735 3 1245
1736 1 658
1736 2 1244
1736 3 1245
1737 1 1244
1737 2 1241
1737 3 1245
1738 1 1241
1738 2 202
1738 3 1245
1739 1 566
1739 2 564
1739 3 1246
1740 1 461
1740 2 563
1740 3 1246
1741 1 563
1741 2 462
1741 3 1246
1742 1 248
1742 2 247
1742 3 1247
1743 1 481
1743 2 1248
1743 3 1249
1744 1 1248
1744 2 544
1744 3 1249
1745 1 543
1745 2 542
1745 3 1249
1746 1 330
1746 2 482
1746 3 1250
1747 1 482
1747 2 481
1747 3 1250
1748 1 481
1748 2 542
1748 3 1250
1749 1 542
1749 2 274
1749 3 1250
1750 1 227
1750 2 1248
1750 3 1691
1751 1 481
1751 2 482
1751 3 1251
1752 1 482
1752 2 541
1752 3 1251
1753 1 541
1753 2 226
1753 3 1251
1754 1 1252
1754 2 85
1754 3 1253
1755 1 84
1755 2 85
1755 3 1690
1756 1 1254
1756 2 1253
1756 3 85
1757 1 86
1757 2 541
1757 3 1253
1758 1 541
1758 2 276
1758 3 1253
1759 1 276
1759 2 1252
1759 3 1253
1760 1 1253
1760 2 1254
1760 3 86
1761 1 936
1761 2 490
1761 3 1255
1762 1 490
1762 2 540
1762 3 1255
1763 1 540
1763 2 539
1763 3 1255
1764 1 944
1764 2 948
1764 3 1274
1765 1 489
1765 2 1255
1765 3 1256
1766 1 1255
1766 2 539
1766 3 1256
1767 1 458
1767 2 572
1767 3 1273
1768 1 1256
1768 2 539
1768 3 1257
1769 1 539
1769 2 458
1769 3 1257
1770 1 1256
1770 2 1257
1770 3 1258
1771 1 573
1771 2 1258
1771 3 1259
1772 1 1258
1772 2 1257
1772 3 1259
1773 1 1256
1773 2 1258
1773 3 1260
1774 1 221
1774 2 1260
1774 3 1271
1775 1 1258
1775 2 573
1775 3 1261
1776 1 1261
1776 2 573
1776 3 1263
1777 1 222
1777 2 1261
1777 3 1264
1778 1 1261
1778 2 1263
1778 3 1264
1779 1 1263
1779 2 1262
1779 3 1264
1780 1 421
1780 2 223
1780 3 1270
1781 1 1262
1781 2 1263
1781 3 1265
1782 1 1263
1782 2 573
1782 3 1265
1783 1 573
1783 2 574
1783 3 1265
1784 1 1262
1784 2 1265
1784 3 1266
1785 1 1265
1785 2 675
1785 3 1266
1786 1 1262
1786 2 1266
1786 3 1267
1787 1 375
1787 2 1267
1787 3 1268
1788 1 1267
1788 2 1266
1788 3 1268
1789 1 675
1789 2 674
1789 3 1682
1790 1 376
1790 2 421
1790 3 1269
1791 1 1264
1791 2 1262
1791 3 1269
1792 1 1262
1792 2 1267
1792 3 1269
1793 1 1267
1793 2 375
1793 3 1269
1794 1 223
1794 2 222
1794 3 1270
1795 1 222
1795 2 1264
1795 3 1270
1796 1 1264
1796 2 1269
1796 3 1270
1797 1 1269
1797 2 421
1797 3 1270
1798 1 1260
1798 2 1258
1798 3 1271
1799 1 1258
1799 2 1261
1799 3 1271
1800 1 1261
1800 2 222
1800 3 1271
1801 1 1272
1801 2 1271
1801 3 222
1802 1 1271
1802 2 1272
1802 3 221
1803 1 1272
1803 2 222
1803 3 1681
1804 1 572
1804 2 574
1804 3 1273
1805 1 574
1805 2 573
1805 3 1273
1806 1 573
1806 2 1259
1806 3 1273
1807 1 1259
1807 2 1257
1807 3 1273
1808 1 1257
1808 2 458
1808 3 1273
1809 1 948
1809 2 489
1809 3 1274
1810 1 489
1810 2 1256
1810 3 1274
1811 1 1256
1811 2 1260
1811 3 1274
1812 1 1260
1812 2 221
1812 3 1274
1813 1 221
1813 2 944
1813 3 1274
1814 1 38
1814 2 538
1814 3 1275
1815 1 538
1815 2 537
1815 3 1275
1816 1 262
1816 2 501
1816 3 1301
1817 1 525
1817 2 524
1817 3 1276
1818 1 263
1818 2 262
1818 3 1277
1819 1 262
1819 2 1276
1819 3 1277
1820 1 1277
1820 2 1276
1820 3 1279
1821 1 1279
1821 2 1276
1821 3 1280
1822 1 1276
1822 2 524
1822 3 1280
1823 1 1279
1823 2 1280
1823 3 1282
1824 1 995
1824 2 1005
1824 3 1680
1825 1 1278
1825 2 1279
1825 3 1283
1826 1 1279
1826 2 1282
1826 3 1283
1827 1 1278
1827 2 1283
1827 3 1284
1828 1 1283
1828 2 1282
1828 3 1679
1829 1 1671
1829 2 1672
1829 3 1674
1830 1 524
1830 2 996
1830 3 1286
1831 1 996
1831 2 995
1831 3 1286
1832 1 1280
1832 2 524
1832 3 1286
1833 1 1281
1833 2 1282
1833 3 1287
1834 1 1282
1834 2 1280
1834 3 1287
1835 1 1280
1835 2 1286
1835 3 1287
1836 1 1286
1836 2 1285
1836 3 1287
1837 1 390
1837 2 266
1837 3 1297
1838 1 266
1838 2 531
1838 3 1298
1839 1 517
1839 2 390
1839 3 1290
1840 1 1288
1840 2 1289
1840 3 1290
1841 1 517
1841 2 1290
1841 3 1291
1842 1 1290
1842 2 1289
1842 3 1291
1843 1 519
1843 2 516
1843 3 1292
1844 1 516
1844 2 1291
1844 3 1292
1845 1 1291
1845 2 1289
1845 3 1292
1846 1 1292
1846 2 1289
1846 3 1293
1847 1 409
1847 2 518
1847 3 1655
1848 1 519
1848 2 1292
1848 3 1294
1849 1 1292
1849 2 1293
1849 3 1294
1850 1 1293
1850 2 1289
1850 3 1296
1851 1 1289
1851 2 1288
1851 3 1296
1852 1 1288
1852 2 1295
1852 3 1296
1853 1 512
1853 2 1293
1853 3 1296
1854 1 1288
1854 2 1290
1854 3 1297
1855 1 1290
1855 2 390
1855 3 1297
1856 1 531
1856 2 264
1856 3 1298
1857 1 1278
1857 2 1295
1857 3 1299
1858 1 1288
1858 2 1297
1858 3 1298
1859 1 1297
1859 2 266
1859 3 1298
1860 1 1295
1860 2 1288
1860 3 1299
1861 1 1288
1861 2 1298
1861 3 1299
1862 1 264
1862 2 1277
1862 3 1300
1863 1 1277
1863 2 1279
1863 3 1300
1864 1 1279
1864 2 1278
1864 3 1300
1865 1 1278
1865 2 1299
1865 3 1300
1866 1 1299
1866 2 1298
1866 3 1300
1867 1 1298
1867 2 264
1867 3 1300
1868 1 501
1868 2 525
1868 3 1301
1869 1 525
1869 2 1276
1869 3 1301
1870 1 1276
1870 2 262
1870 3 1301
1871 1 28
1871 2 309
1871 3 1302
1872 1 309
1872 2 523
1872 3 1302
1873 1 523
1873 2 502
1873 3 1302
1874 1 502
1874 2 26
1874 3 1302
1875 1 402
1875 2 270
1875 3 1303
1876 1 269
1876 2 517
1876 3 1306
1877 1 517
1877 2 1291
1877 3 1304
1878 1 1291
1878 2 516
1878 3 1304
1879 1 1303
1879 2 1304
1879 3 1305
1880 1 517
1880 2 1304
1880 3 1306
1881 1 1304
1881 2 1303
1881 3 1306
1882 1 1303
1882 2 270
1882 3 1306
1883 1 270
1883 2 269
1883 3 1306
1884 1 136
1884 2 1308
1884 3 1309
1885 1 1308
1885 2 1307
1885 3 1309
1886 1 1307
1886 2 511
1886 3 1314
1887 1 1307
1887 2 1308
1887 3 1310
1888 1 1308
1888 2 508
1888 3 1310
1889 1 593
1889 2 592
1889 3 1312
1890 1 1205
1890 2 1208
1890 3 1311
1891 1 592
1891 2 1204
1891 3 1318
1892 1 1311
1892 2 1310
1892 3 1312
1893 1 1310
1893 2 508
1893 3 1312
1894 1 508
1894 2 138
1894 3 1312
1895 1 138
1895 2 593
1895 3 1312
1896 1 511
1896 2 1307
1896 3 1313
1897 1 1307
1897 2 1310
1897 3 1313
1898 1 1310
1898 2 1311
1898 3 1313
1899 1 1311
1899 2 510
1899 3 1313
1900 1 511
1900 2 132
1900 3 1314
1901 1 1309
1901 2 1307
1901 3 1314
1902 1 134
1902 2 135
1902 3 1317
1903 1 1309
1903 2 1314
1903 3 1315
1904 1 1314
1904 2 1316
1904 3 1315
1905 1 1315
1905 2 1316
1905 3 133
1906 1 1316
1906 2 1314
1906 3 132
1907 1 135
1907 2 136
1907 3 1317
1908 1 136
1908 2 1309
1908 3 1317
1909 1 1309
1909 2 1315
1909 3 1317
1910 1 1315
1910 2 133
1910 3 1317
1911 1 133
1911 2 134
1911 3 1317
1912 1 1204
1912 2 1205
1912 3 1318
1913 1 1205
1913 2 1311
1913 3 1318
1914 1 1311
1914 2 1312
1914 3 1318
1915 1 1312
1915 2 592
1915 3 1318
1916 1 552
1916 2 237
1916 3 1319
1917 1 237
1917 2 238
1917 3 1319
1918 1 238
1918 2 509
1918 3 1319
1919 1 509
1919 2 1320
1919 3 153
1920 1 1321
1920 2 155
1920 3 1322
1921 1 497
1921 2 1321
1921 3 239
1922 1 1323
1922 2 1322
1922 3 155
1923 1 156
1923 2 522
1923 3 1322
1924 1 522
1924 2 239
1924 3 1322
1925 1 239
1925 2 1321
1925 3 1322
1926 1 1322
1926 2 1323
1926 3 156
1927 1 1324
1927 2 1321
1927 3 497
1928 1 852
1928 2 1324
1928 3 497
1929 1 161
1929 2 495
1929 3 1325
1930 1 159
1930 2 160
1930 3 1645
1931 1 189
1931 2 1328
1931 3 1329
1932 1 1328
1932 2 190
1932 3 1331
1933 1 1327
1933 2 1328
1933 3 1331
1934 1 1330
1934 2 1331
1934 3 1332
1935 1 1331
1935 2 190
1935 3 1332
1936 1 190
1936 2 191
1936 3 1332
1937 1 1330
1937 2 1332
1937 3 1335
1938 1 1334
1938 2 192
1938 3 1338
1939 1 1335
1939 2 1333
1939 3 1337
1940 1 1330
1940 2 1335
1940 3 1337
1941 1 1333
1941 2 1335
1941 3 1338
1942 1 1335
1942 2 1332
1942 3 1338
1943 1 1332
1943 2 191
1943 3 1338
1944 1 191
1944 2 1334
1944 3 1338
1945 1 1333
1945 2 1338
1945 3 1340
1946 1 1338
1946 2 192
1946 3 1340
1947 1 1341
1947 2 1340
1947 3 192
1948 1 1333
1948 2 1340
1948 3 1374
1949 1 1336
1949 2 1337
1949 3 1373
1950 1 1337
1950 2 1333
1950 3 1344
1951 1 1344
1951 2 1343
1951 3 1346
1952 1 1344
1952 2 1346
1952 3 1347
1953 1 1346
1953 2 1345
1953 3 1347
1954 1 1345
1954 2 1346
1954 3 1348
1955 1 1346
1955 2 1343
1955 3 1348
1956 1 1348
1956 2 1343
1956 3 1350
1957 1 1349
1957 2 1350
1957 3 1351
1958 1 1340
1958 2 1341
1958 3 1639
1959 1 1347
1959 2 1345
1959 3 1353
1960 1 1336
1960 2 1347
1960 3 1354
1961 1 1347
1961 2 1353
1961 3 1354
1962 1 1353
1962 2 1352
1962 3 1354
1963 1 1352
1963 2 1353
1963 3 1355
1964 1 1353
1964 2 1345
1964 3 1355
1965 1 1352
1965 2 1355
1965 3 1356
1966 1 1356
1966 2 1355
1966 3 1358
1967 1 522
1967 2 156
1967 3 1359
1968 1 156
1968 2 157
1968 3 1359
1969 1 157
1969 2 1356
1969 3 1359
1970 1 1356
1970 2 1358
1970 3 1359
1971 1 1358
1971 2 1357
1971 3 1359
1972 1 1357
1972 2 1358
1972 3 1360
1973 1 1358
1973 2 1355
1973 3 1360
1974 1 1345
1974 2 1348
1974 3 1361
1975 1 1348
1975 2 1342
1975 3 1361
1976 1 1342
1976 2 1360
1976 3 1361
1977 1 1360
1977 2 1355
1977 3 1361
1978 1 1355
1978 2 1345
1978 3 1361
1979 1 1638
1979 2 1637
1979 3 242
1980 1 1357
1980 2 1360
1980 3 1366
1981 1 1360
1981 2 1342
1981 3 1363
1982 1 555
1982 2 1551
1982 3 1552
1983 1 1362
1983 2 1363
1983 3 1365
1984 1 1360
1984 2 1363
1984 3 1366
1985 1 1363
1985 2 1362
1985 3 1366
1986 1 1356
1986 2 157
1986 3 1371
1987 1 1354
1987 2 1352
1987 3 1367
1988 1 1354
1988 2 1367
1988 3 1368
1989 1 1367
1989 2 158
1989 3 1368
1990 1 1633
1990 2 1368
1990 3 158
1991 1 1336
1991 2 1354
1991 3 1369
1992 1 1354
1992 2 1368
1992 3 1369
1993 1 1330
1993 2 1337
1993 3 1376
1994 1 1369
1994 2 1368
1994 3 1370
1995 1 1372
1995 2 1371
1995 3 157
1996 1 158
1996 2 1367
1996 3 1371
1997 1 1367
1997 2 1352
1997 3 1371
1998 1 1352
1998 2 1356
1998 3 1371
1999 1 1371
1999 2 1372
1999 3 158
2000 1 1337
2000 2 1344
2000 3 1373
2001 1 1344
2001 2 1347
2001 3 1373
2002 1 1347
2002 2 1336
2002 3 1373
2003 1 1351
2003 2 1350
2003 3 1375
2004 1 1343
2004 2 1344
2004 3 1374
2005 1 1344
2005 2 1333
2005 3 1374
2006 1 1350
2006 2 1343
2006 3 1375
2007 1 1343
2007 2 1374
2007 3 1375
2008 1 1374
2008 2 1340
2008 3 1375
2009 1 1337
2009 2 1336
2009 3 1376
2010 1 1327
2010 2 1331
2010 3 1377
2011 1 1331
2011 2 1330
2011 3 1377
2012 1 1330
2012 2 1376
2012 3 1377
2013 1 1376
2013 2 1336
2013 3 1380
2014 1 1327
2014 2 1377
2014 3 1378
2015 1 1378
2015 2 1377
2015 3 1379
2016 1 1377
2016 2 1376
2016 3 1379
2017 1 1336
2017 2 1369
2017 3 1380
2018 1 1369
2018 2 1370
2018 3 1380
2019 1 1370
2019 2 1379
2019 3 1380
2020 1 1379
2020 2 1376
2020 3 1380
2021 1 1329
2021 2 1328
2021 3 1382
2022 1 1327
2022 2 1378
2022 3 1381
2023 1 1378
2023 2 494
2023 3 1381
2024 1 494
2024 2 1192
2024 3 1381
2025 1 1328
2025 2 1327
2025 3 1382
2026 1 1327
2026 2 1381
2026 3 1382
2027 1 1195
2027 2 1329
2027 3 1382
2028 1 493
2028 2 492
2028 3 1386
2029 1 336
2029 2 214
2029 3 1385
2030 1 216
2030 2 1630
2030 3 1877
2031 1 214
2031 2 216
2031 3 1385
2032 1 1383
2032 2 1386
2032 3 1387
2033 1 1386
2033 2 492
2033 3 1387
2034 1 1387
2034 2 492
2034 3 1388
2035 1 491
2035 2 1389
2035 3 1391
2036 1 1391
2036 2 1390
2036 3 1393
2037 1 491
2037 2 1391
2037 3 1394
2038 1 1391
2038 2 1393
2038 3 1394
2039 1 1393
2039 2 1392
2039 3 1394
2040 1 1388
2040 2 491
2040 3 1400
2041 1 1394
2041 2 1392
2041 3 1628
2042 1 1393
2042 2 1390
2042 3 1398
2043 1 1882
2043 2 1409
2043 3 9
2044 1 1392
2044 2 1393
2044 3 1398
2045 1 1397
2045 2 1398
2045 3 1399
2046 1 1398
2046 2 1390
2046 3 1399
2047 1 1387
2047 2 1388
2047 3 1400
2048 1 1389
2048 2 1150
2048 3 1402
2049 1 1390
2049 2 1391
2049 3 1403
2050 1 1391
2050 2 1389
2050 3 1403
2051 1 1389
2051 2 1402
2051 3 1403
2052 1 1402
2052 2 1401
2052 3 1403
2053 1 1401
2053 2 1402
2053 3 1404
2054 1 1150
2054 2 1151
2054 3 1594
2055 1 1401
2055 2 1404
2055 3 1406
2056 1 1404
2056 2 1153
2056 3 1406
2057 1 1153
2057 2 1159
2057 3 1406
2058 1 1159
2058 2 8
2058 3 1406
2059 1 8
2059 2 1405
2059 3 1406
2060 1 1390
2060 2 1403
2060 3 1408
2061 1 1401
2061 2 1406
2061 3 1407
2062 1 1406
2062 2 1405
2062 3 1407
2063 1 1405
2063 2 9
2063 3 1407
2064 1 1403
2064 2 1401
2064 3 1408
2065 1 1401
2065 2 1407
2065 3 1408
2066 1 1407
2066 2 9
2066 3 1409
2067 1 1399
2067 2 1390
2067 3 1409
2068 1 1390
2068 2 1408
2068 3 1409
2069 1 1408
2069 2 1407
2069 3 1409
2070 1 1152
2070 2 1150
2070 3 1410
2071 1 1150
2071 2 1389
2071 3 1410
2072 1 1389
2072 2 1388
2072 3 1410
2073 1 1388
2073 2 492
2073 3 1410
2074 1 639
2074 2 1742
2074 3 1876
2075 1 1383
2075 2 1387
2075 3 1412
2076 1 1411
2076 2 1384
2076 3 1412
2077 1 1384
2077 2 1383
2077 3 1412
2078 1 1115
2078 2 638
2078 3 1414
2079 1 1411
2079 2 1412
2079 3 1413
2080 1 1412
2080 2 1387
2080 3 1413
2081 1 1387
2081 2 1400
2081 3 1413
2082 1 1400
2082 2 1396
2082 3 1413
2083 1 638
2083 2 1411
2083 3 1414
2084 1 1411
2084 2 1413
2084 3 1414
2085 1 1413
2085 2 1396
2085 3 1414
2086 1 1114
2086 2 1115
2086 3 1414
2087 1 484
2087 2 1415
2087 3 67
2088 1 1415
2088 2 62
2088 3 66
2089 1 399
2089 2 562
2089 3 1416
2090 1 562
2090 2 1176
2090 3 1416
2091 1 1176
2091 2 1177
2091 3 1416
2092 1 1177
2092 2 397
2092 3 1416
2093 1 1087
2093 2 1417
2093 3 297
2094 1 571
2094 2 1417
2094 3 296
2095 1 1417
2095 2 1087
2095 3 296
2096 1 251
2096 2 880
2096 3 1420
2097 1 450
2097 2 252
2097 3 1419
2098 1 880
2098 2 249
2098 3 1420
2099 1 1419
2099 2 252
2099 3 1420
2100 1 252
2100 2 251
2100 3 1420
2101 1 1418
2101 2 1419
2101 3 1421
2102 1 1419
2102 2 1420
2102 3 1421
2103 1 1420
2103 2 249
2103 3 1421
2104 1 249
2104 2 248
2104 3 1421
2105 1 448
2105 2 450
2105 3 1422
2106 1 450
2106 2 1419
2106 3 1422
2107 1 1419
2107 2 1418
2107 3 1422
2108 1 449
2108 2 448
2108 3 1423
2109 1 448
2109 2 1422
2109 3 1423
2110 1 1422
2110 2 1418
2110 3 1423
2111 1 1424
2111 2 1166
2111 3 302
2112 1 673
2112 2 378
2112 3 1425
2113 1 378
2113 2 1166
2113 3 1425
2114 1 1166
2114 2 1424
2114 3 1425
2115 1 1424
2115 2 301
2115 3 1425
2116 1 301
2116 2 1424
2116 3 1426
2117 1 1424
2117 2 302
2117 3 1426
2118 1 302
2118 2 440
2118 3 1426
2119 1 395
2119 2 396
2119 3 1427
2120 1 305
2120 2 439
2120 3 1439
2121 1 416
2121 2 415
2121 3 1429
2122 1 1427
2122 2 1430
2122 3 1431
2123 1 1430
2123 2 1428
2123 3 1431
2124 1 1431
2124 2 1428
2124 3 1433
2125 1 395
2125 2 1427
2125 3 1538
2126 1 1431
2126 2 1433
2126 3 1434
2127 1 1432
2127 2 1433
2127 3 1435
2128 1 1433
2128 2 1428
2128 3 1435
2129 1 1428
2129 2 1429
2129 3 1435
2130 1 1429
2130 2 415
2130 3 1435
2131 1 1432
2131 2 1435
2131 3 1436
2132 1 1168
2132 2 1169
2132 3 1437
2133 1 414
2133 2 1436
2133 3 1437
2134 1 1436
2134 2 1435
2134 3 1437
2135 1 1435
2135 2 415
2135 3 1437
2136 1 415
2136 2 1168
2136 3 1437
2137 1 1432
2137 2 1436
2137 3 1438
2138 1 439
2138 2 1430
2138 3 1439
2139 1 1430
2139 2 1427
2139 3 1439
2140 1 1427
2140 2 396
2140 3 1439
2141 1 396
2141 2 305
2141 3 1439
2142 1 416
2142 2 1429
2142 3 1440
2143 1 1429
2143 2 1428
2143 3 1440
2144 1 1428
2144 2 1430
2144 3 1440
2145 1 1430
2145 2 439
2145 3 1440
2146 1 186
2146 2 187
2146 3 1441
2147 1 187
2147 2 430
2147 3 1441
2148 1 430
2148 2 352
2148 3 1441
2149 1 352
2149 2 311
2149 3 1441
2150 1 1464
2150 2 1446
2150 3 1467
2151 1 1452
2151 2 1449
2151 3 1450
2152 1 1449
2152 2 1451
2152 3 1450
2153 1 1452
2153 2 1447
2153 3 1449
2154 1 1447
2154 2 1452
2154 3 1448
2155 1 110
2155 2 1451
2155 3 1453
2156 1 1451
2156 2 1449
2156 3 1453
2157 1 1453
2157 2 1449
2157 3 1454
2158 1 1449
2158 2 1447
2158 3 1454
2159 1 1447
2159 2 1460
2159 3 1465
2160 1 1456
2160 2 1455
2160 3 109
2161 1 110
2161 2 1453
2161 3 1459
2162 1 1455
2162 2 1456
2162 3 1457
2163 1 1458
2163 2 1457
2163 3 1456
2164 1 1457
2164 2 1458
2164 3 1459
2165 1 1458
2165 2 110
2165 3 1459
2166 1 1447
2166 2 1462
2166 3 1460
2167 1 1463
2167 2 1460
2167 3 1461
2168 1 1460
2168 2 1462
2168 3 1461
2169 1 1462
2169 2 1447
2169 3 1448
2170 1 1460
2170 2 1463
2170 3 1464
2171 1 1463
2171 2 1446
2171 3 1464
2172 1 1460
2172 2 1464
2172 3 1465
2173 1 1464
2173 2 1445
2173 3 1465
2174 1 428
2174 2 427
2174 3 1480
2175 1 1454
2175 2 1447
2175 3 1465
2176 1 1468
2176 2 1467
2176 3 1446
2177 1 1466
2177 2 1444
2177 3 1472
2178 1 1445
2178 2 1464
2178 3 1467
2179 1 1467
2179 2 1468
2179 3 1466
2180 1 1465
2180 2 1445
2180 3 1471
2181 1 1467
2181 2 1466
2181 3 1472
2182 1 1457
2182 2 1459
2182 3 1473
2183 1 1459
2183 2 1453
2183 3 1473
2184 1 1453
2184 2 1454
2184 3 1473
2185 1 1454
2185 2 1465
2185 3 1475
2186 1 1470
2186 2 1471
2186 3 1474
2187 1 1471
2187 2 1445
2187 3 1474
2188 1 1445
2188 2 1467
2188 3 1474
2189 1 1467
2189 2 1472
2189 3 1474
2190 1 1472
2190 2 1443
2190 3 1474
2191 1 1465
2191 2 1471
2191 3 1475
2192 1 1471
2192 2 1470
2192 3 1475
2193 1 1473
2193 2 1454
2193 3 1475
2194 1 1455
2194 2 1457
2194 3 1478
2195 1 1473
2195 2 1475
2195 3 1476
2196 1 1475
2196 2 1470
2196 3 1476
2197 1 1470
2197 2 1469
2197 3 1476
2198 1 1442
2198 2 112
2198 3 1496
2199 1 428
2199 2 1469
2199 3 1477
2200 1 1469
2200 2 1470
2200 3 1477
2201 1 1470
2201 2 1474
2201 3 1477
2202 1 1474
2202 2 1443
2202 3 1477
2203 1 1457
2203 2 1473
2203 3 1478
2204 1 1473
2204 2 1476
2204 3 1478
2205 1 981
2205 2 109
2205 3 1481
2206 1 1455
2206 2 1478
2206 3 1479
2207 1 1478
2207 2 1476
2207 3 1479
2208 1 1476
2208 2 429
2208 3 1479
2209 1 427
2209 2 429
2209 3 1480
2210 1 429
2210 2 1476
2210 3 1480
2211 1 1476
2211 2 1469
2211 3 1480
2212 1 1469
2212 2 428
2212 3 1480
2213 1 109
2213 2 1455
2213 3 1481
2214 1 1455
2214 2 1479
2214 3 1481
2215 1 1479
2215 2 429
2215 3 1481
2216 1 429
2216 2 547
2216 3 1481
2217 1 547
2217 2 981
2217 3 1481
2218 1 1443
2218 2 1472
2218 3 1488
2219 1 1487
2219 2 1484
2219 3 1485
2220 1 1484
2220 2 1486
2220 3 1485
2221 1 1487
2221 2 1482
2221 3 1484
2222 1 1482
2222 2 1487
2222 3 1483
2223 1 1472
2223 2 1444
2223 3 1488
2224 1 1444
2224 2 1486
2224 3 1488
2225 1 1486
2225 2 1484
2225 3 1488
2226 1 1443
2226 2 1488
2226 3 1489
2227 1 1488
2227 2 1484
2227 3 1489
2228 1 1484
2228 2 1482
2228 3 1489
2229 1 1482
2229 2 1493
2229 3 1491
2230 1 1494
2230 2 1491
2230 3 1492
2231 1 1491
2231 2 1493
2231 3 1492
2232 1 1493
2232 2 1482
2232 3 1483
2233 1 1494
2233 2 1495
2233 3 1491
2234 1 1491
2234 2 1495
2234 3 1490
2235 1 1495
2235 2 1494
2235 3 111
2236 1 112
2236 2 428
2236 3 1496
2237 1 428
2237 2 1477
2237 3 1496
2238 1 1477
2238 2 1443
2238 3 1496
2239 1 1443
2239 2 1489
2239 3 1496
2240 1 1489
2240 2 1482
2240 3 1497
2241 1 1482
2241 2 1491
2241 3 1497
2242 1 1491
2242 2 1490
2242 3 1497
2243 1 1490
2243 2 1442
2243 3 1497
2244 1 1442
2244 2 1496
2244 3 1497
2245 1 1496
2245 2 1489
2245 3 1497
2246 1 1498
2246 2 955
2246 3 426
2247 1 115
2247 2 116
2247 3 1499
2248 1 116
2248 2 1498
2248 3 1499
2249 1 1498
2249 2 426
2249 3 1499
2250 1 426
2250 2 954
2250 3 1499
2251 1 954
2251 2 353
2251 3 1499
2252 1 353
2252 2 114
2252 3 1499
2253 1 1501
2253 2 1500
2253 3 14
2254 1 387
2254 2 385
2254 3 1500
2255 1 1500
2255 2 1501
2255 3 387
2256 1 238
2256 2 237
2256 3 1502
2257 1 237
2257 2 337
2257 3 1502
2258 1 151
2258 2 1502
2258 3 1503
2259 1 1502
2259 2 337
2259 3 1503
2260 1 337
2260 2 434
2260 3 1503
2261 1 433
2261 2 1507
2261 3 1508
2262 1 1503
2262 2 1504
2262 3 150
2263 1 309
2263 2 310
2263 3 1505
2264 1 310
2264 2 30
2264 3 1505
2265 1 30
2265 2 1095
2265 3 1505
2266 1 1095
2266 2 1094
2266 3 1505
2267 1 1094
2267 2 308
2267 3 1505
2268 1 176
2268 2 177
2268 3 1506
2269 1 174
2269 2 175
2269 3 1506
2270 1 1507
2270 2 1504
2270 3 1508
2271 1 1504
2271 2 1503
2271 3 1508
2272 1 1503
2272 2 434
2272 3 1508
2273 1 434
2273 2 433
2273 3 1508
2274 1 1434
2274 2 1433
2274 3 1523
2275 1 1432
2275 2 1438
2275 3 1509
2276 1 1509
2276 2 1438
2276 3 1510
2277 1 1509
2277 2 1510
2277 3 1511
2278 1 418
2278 2 1511
2278 3 1512
2279 1 1511
2279 2 1510
2279 3 1512
2280 1 1510
2280 2 417
2280 3 1512
2281 1 418
2281 2 1512
2281 3 1513
2282 1 1512
2282 2 417
2282 3 1513
2283 1 417
2283 2 1243
2283 3 1513
2284 1 1243
2284 2 1242
2284 3 1514
2285 1 1242
2285 2 1240
2285 3 1514
2286 1 1513
2286 2 1243
2286 3 1514
2287 1 209
2287 2 210
2287 3 1516
2288 1 418
2288 2 1513
2288 3 1515
2289 1 418
2289 2 1515
2289 3 1516
2290 1 1515
2290 2 209
2290 3 1516
2291 1 661
2291 2 208
2291 3 1527
2292 1 1517
2292 2 1519
2292 3 1525
2293 1 1515
2293 2 1513
2293 3 1524
2294 1 1515
2294 2 1519
2294 3 209
2295 1 1511
2295 2 1521
2295 3 1522
2296 1 1511
2296 2 418
2296 3 1521
2297 1 418
2297 2 1516
2297 3 1521
2298 1 1516
2298 2 210
2298 3 1521
2299 1 210
2299 2 1520
2299 3 1521
2300 1 1521
2300 2 1520
2300 3 1522
2301 1 1520
2301 2 211
2301 3 1522
2302 1 211
2302 2 1540
2302 3 1541
2303 1 1433
2303 2 1432
2303 3 1523
2304 1 1432
2304 2 1509
2304 3 1523
2305 1 1513
2305 2 1514
2305 3 1524
2306 1 1514
2306 2 1240
2306 3 1524
2307 1 1240
2307 2 1518
2307 3 1524
2308 1 1519
2308 2 1515
2308 3 1525
2309 1 1515
2309 2 1524
2309 3 1525
2310 1 1524
2310 2 1518
2310 3 1525
2311 1 1518
2311 2 1517
2311 3 1525
2312 1 1518
2312 2 1526
2312 3 1517
2313 1 208
2313 2 1526
2313 3 1527
2314 1 1526
2314 2 1518
2314 3 1527
2315 1 661
2315 2 1527
2315 3 1528
2316 1 1527
2316 2 1518
2316 3 1528
2317 1 1518
2317 2 1240
2317 3 1528
2318 1 1240
2318 2 1244
2318 3 1528
2319 1 417
2319 2 1510
2319 3 1536
2320 1 1234
2320 2 1243
2320 3 1532
2321 1 1170
2321 2 1174
2321 3 1534
2322 1 1173
2322 2 1530
2322 3 1531
2323 1 1530
2323 2 1529
2323 3 1531
2324 1 1438
2324 2 1436
2324 3 1533
2325 1 1529
2325 2 1530
2325 3 1532
2326 1 1530
2326 2 1238
2326 3 1532
2327 1 1238
2327 2 1234
2327 3 1532
2328 1 1436
2328 2 414
2328 3 1533
2329 1 414
2329 2 1531
2329 3 1533
2330 1 1531
2330 2 1529
2330 3 1533
2331 1 1174
2331 2 1173
2331 3 1534
2332 1 1173
2332 2 1531
2332 3 1534
2333 1 1170
2333 2 1534
2333 3 1535
2334 1 1534
2334 2 1531
2334 3 1535
2335 1 1531
2335 2 414
2335 3 1535
2336 1 1510
2336 2 1438
2336 3 1536
2337 1 1438
2337 2 1533
2337 3 1536
2338 1 1533
2338 2 1529
2338 3 1536
2339 1 1529
2339 2 1532
2339 3 1537
2340 1 1532
2340 2 1243
2340 3 1537
2341 1 1243
2341 2 417
2341 3 1537
2342 1 417
2342 2 1536
2342 3 1537
2343 1 1536
2343 2 1529
2343 3 1537
2344 1 1427
2344 2 1431
2344 3 1538
2345 1 1431
2345 2 1434
2345 3 1538
2346 1 1538
2346 2 1539
2346 3 395
2347 1 1540
2347 2 1539
2347 3 1541
2348 1 1539
2348 2 1538
2348 3 1541
2349 1 1538
2349 2 1434
2349 3 1541
2350 1 1509
2350 2 1511
2350 3 1542
2351 1 1522
2351 2 211
2351 3 1541
2352 1 1511
2352 2 1522
2352 3 1542
2353 1 1522
2353 2 1541
2353 3 1542
2354 1 1541
2354 2 1434
2354 3 1542
2355 1 1434
2355 2 1523
2355 3 1542
2356 1 1523
2356 2 1509
2356 3 1542
2357 1 1423
2357 2 1418
2357 3 1544
2358 1 1423
2358 2 1544
2358 3 1545
2359 1 1544
2359 2 1543
2359 3 1545
2360 1 1543
2360 2 1553
2360 3 1555
2361 1 1421
2361 2 248
2361 3 1547
2362 1 1543
2362 2 1544
2362 3 1546
2363 1 1544
2363 2 1418
2363 3 1546
2364 1 248
2364 2 1247
2364 3 1547
2365 1 1546
2365 2 1418
2365 3 1547
2366 1 1418
2366 2 1421
2366 3 1547
2367 1 349
2367 2 350
2367 3 1592
2368 1 1543
2368 2 1546
2368 3 1548
2369 1 348
2369 2 1548
2369 3 1549
2370 1 1546
2370 2 1547
2370 3 1591
2371 1 348
2371 2 1549
2371 3 1550
2372 1 1549
2372 2 559
2372 3 1550
2373 1 559
2373 2 557
2373 3 1550
2374 1 555
2374 2 348
2374 3 1551
2375 1 348
2375 2 1550
2375 3 1551
2376 1 1550
2376 2 557
2376 3 1551
2377 1 557
2377 2 560
2377 3 1590
2378 1 1543
2378 2 1548
2378 3 1553
2379 1 348
2379 2 556
2379 3 1554
2380 1 556
2380 2 349
2380 3 1554
2381 1 1553
2381 2 1548
2381 3 1554
2382 1 1548
2382 2 348
2382 3 1554
2383 1 1553
2383 2 472
2383 3 1555
2384 1 1545
2384 2 1543
2384 3 1555
2385 1 1545
2385 2 1557
2385 3 1558
2386 1 1545
2386 2 1555
2386 3 1557
2387 1 1555
2387 2 472
2387 3 1557
2388 1 472
2388 2 196
2388 3 1557
2389 1 196
2389 2 1556
2389 3 1557
2390 1 1557
2390 2 1556
2390 3 1558
2391 1 1556
2391 2 197
2391 3 1558
2392 1 197
2392 2 449
2392 3 1558
2393 1 449
2393 2 1423
2393 3 1559
2394 1 1423
2394 2 1545
2394 3 1559
2395 1 1545
2395 2 1558
2395 3 1559
2396 1 1558
2396 2 449
2396 3 1559
2397 1 469
2397 2 555
2397 3 1560
2398 1 555
2398 2 1552
2398 3 1560
2399 1 1560
2399 2 1552
2399 3 1561
2400 1 469
2400 2 1560
2400 3 1564
2401 1 1561
2401 2 1364
2401 3 1562
2402 1 1365
2402 2 1584
2402 3 1586
2403 1 1364
2403 2 1561
2403 3 1563
2404 1 1561
2404 2 1552
2404 3 1563
2405 1 1585
2405 2 1820
2405 3 243
2406 1 1560
2406 2 1561
2406 3 1564
2407 1 1561
2407 2 1562
2407 3 1564
2408 1 1875
2408 2 1566
2408 3 468
2409 1 470
2409 2 553
2409 3 1565
2410 1 553
2410 2 469
2410 3 1565
2411 1 469
2411 2 1564
2411 3 1565
2412 1 1564
2412 2 1562
2412 3 1565
2413 1 1565
2413 2 1562
2413 3 1566
2414 1 1566
2414 2 1562
2414 3 1568
2415 1 1571
2415 2 1570
2415 3 1569
2416 1 468
2416 2 1566
2416 3 1570
2417 1 1566
2417 2 1568
2417 3 1570
2418 1 1570
2418 2 1571
2418 3 468
2419 1 1569
2419 2 1570
2419 3 1572
2420 1 1570
2420 2 1568
2420 3 1572
2421 1 1568
2421 2 1567
2421 3 1572
2422 1 1363
2422 2 1342
2422 3 1582
2423 1 1572
2423 2 1567
2423 3 1573
2424 1 1575
2424 2 1574
2424 3 193
2425 1 1572
2425 2 1573
2425 3 1574
2426 1 1573
2426 2 1349
2426 3 1574
2427 1 1575
2427 2 1572
2427 3 1574
2428 1 1572
2428 2 1575
2428 3 1569
2429 1 1577
2429 2 1351
2429 3 1339
2430 1 193
2430 2 1574
2430 3 1576
2431 1 1574
2431 2 1349
2431 3 1576
2432 1 1349
2432 2 1351
2432 3 1576
2433 1 1576
2433 2 1577
2433 3 193
2434 1 1351
2434 2 1577
2434 3 1576
2435 1 1342
2435 2 1348
2435 3 1581
2436 1 1349
2436 2 1573
2436 3 1578
2437 1 1365
2437 2 1363
2437 3 1583
2438 1 1567
2438 2 1568
2438 3 1579
2439 1 1568
2439 2 1562
2439 3 1579
2440 1 1562
2440 2 1364
2440 3 1579
2441 1 1578
2441 2 1573
2441 3 1580
2442 1 1573
2442 2 1567
2442 3 1580
2443 1 1567
2443 2 1579
2443 3 1580
2444 1 1348
2444 2 1350
2444 3 1581
2445 1 1350
2445 2 1349
2445 3 1581
2446 1 1349
2446 2 1578
2446 3 1581
2447 1 1342
2447 2 1581
2447 3 1582
2448 1 1581
2448 2 1578
2448 3 1582
2449 1 1363
2449 2 1582
2449 3 1583
2450 1 1582
2450 2 1578
2450 3 1583
2451 1 1578
2451 2 1580
2451 3 1583
2452 1 1365
2452 2 1583
2452 3 1584
2453 1 1583
2453 2 1580
2453 3 1584
2454 1 1580
2454 2 1579
2454 3 1584
2455 1 1579
2455 2 1364
2455 3 1584
2456 1 1563
2456 2 1552
2456 3 1585
2457 1 1552
2457 2 560
2457 3 1585
2458 1 1584
2458 2 1364
2458 3 1586
2459 1 1364
2459 2 1563
2459 3 1586
2460 1 1362
2460 2 1365
2460 3 1587
2461 1 1365
2461 2 1586
2461 3 1587
2462 1 982
2462 2 1588
2462 3 243
2463 1 1588
2463 2 982
2463 3 242
2464 1 1588
2464 2 242
2464 3 1589
2465 1 242
2465 2 1587
2465 3 1589
2466 1 1587
2466 2 1586
2466 3 1589
2467 1 1586
2467 2 1563
2467 3 1589
2468 1 1563
2468 2 1585
2468 3 1589
2469 1 1585
2469 2 243
2469 3 1589
2470 1 243
2470 2 1588
2470 3 1589
2471 1 560
2471 2 1552
2471 3 1590
2472 1 1552
2472 2 1551
2472 3 1590
2473 1 1551
2473 2 557
2473 3 1590
2474 1 1547
2474 2 1247
2474 3 1591
2475 1 1247
2475 2 559
2475 3 1591
2476 1 559
2476 2 1549
2476 3 1591
2477 1 1549
2477 2 1548
2477 3 1591
2478 1 1548
2478 2 1546
2478 3 1591
2479 1 350
2479 2 472
2479 3 1592
2480 1 472
2480 2 1553
2480 3 1592
2481 1 1553
2481 2 1554
2481 3 1592
2482 1 1554
2482 2 349
2482 3 1592
2483 1 1384
2483 2 1411
2483 3 1593
2484 1 1411
2484 2 638
2484 3 1593
2485 1 638
2485 2 639
2485 3 1593
2486 1 1151
2486 2 1154
2486 3 1594
2487 1 1154
2487 2 1153
2487 3 1594
2488 1 1153
2488 2 1404
2488 3 1594
2489 1 1404
2489 2 1402
2489 3 1594
2490 1 1402
2490 2 1150
2490 3 1594
2491 1 1397
2491 2 1399
2491 3 1595
2492 1 1399
2492 2 10
2492 3 1595
2493 1 1397
2493 2 1595
2493 3 1597
2494 1 1392
2494 2 1398
2494 3 1614
2495 1 1397
2495 2 1597
2495 3 1598
2496 1 1597
2496 2 1596
2496 3 1598
2497 1 1596
2497 2 1597
2497 3 1599
2498 1 1597
2498 2 1595
2498 3 1599
2499 1 1595
2499 2 10
2499 3 1599
2500 1 10
2500 2 11
2500 3 1599
2501 1 1599
2501 2 11
2501 3 1601
2502 1 1602
2502 2 1601
2502 3 11
2503 1 1600
2503 2 1596
2503 3 1601
2504 1 1596
2504 2 1599
2504 3 1601
2505 1 1598
2505 2 1596
2505 3 1603
2506 1 1135
2506 2 1603
2506 3 1604
2507 1 1603
2507 2 1596
2507 3 1604
2508 1 1596
2508 2 1600
2508 3 1604
2509 1 1604
2509 2 1600
2509 3 1606
2510 1 1135
2510 2 1604
2510 3 1607
2511 1 1604
2511 2 1606
2511 3 1607
2512 1 1606
2512 2 1605
2512 3 1607
2513 1 13
2513 2 1500
2513 3 1623
2514 1 385
2514 2 627
2514 3 1610
2515 1 1605
2515 2 1606
2515 3 1608
2516 1 1606
2516 2 1600
2516 3 1608
2517 1 1600
2517 2 1601
2517 3 1609
2518 1 1601
2518 2 1602
2518 3 1609
2519 1 1602
2519 2 12
2519 3 1609
2520 1 1608
2520 2 1600
2520 3 1609
2521 1 627
2521 2 1605
2521 3 1610
2522 1 1605
2522 2 1608
2522 3 1610
2523 1 1607
2523 2 1605
2523 3 1611
2524 1 1607
2524 2 1611
2524 3 1612
2525 1 612
2525 2 1611
2525 3 1613
2526 1 1611
2526 2 1605
2526 3 1613
2527 1 1605
2527 2 627
2527 3 1613
2528 1 1398
2528 2 1397
2528 3 1614
2529 1 1397
2529 2 1598
2529 3 1614
2530 1 1614
2530 2 1598
2530 3 1616
2531 1 1615
2531 2 1392
2531 3 1616
2532 1 1392
2532 2 1614
2532 3 1616
2533 1 1615
2533 2 1616
2533 3 1617
2534 1 1616
2534 2 1598
2534 3 1617
2535 1 1598
2535 2 1603
2535 3 1617
2536 1 1603
2536 2 1135
2536 3 1617
2537 1 1139
2537 2 620
2537 3 1621
2538 1 1615
2538 2 1617
2538 3 1618
2539 1 1395
2539 2 1392
2539 3 1620
2540 1 1615
2540 2 1618
2540 3 1619
2541 1 620
2541 2 1122
2541 3 1619
2542 1 1392
2542 2 1615
2542 3 1620
2543 1 1615
2543 2 1619
2543 3 1620
2544 1 1619
2544 2 1122
2544 3 1620
2545 1 620
2545 2 1619
2545 3 1621
2546 1 1619
2546 2 1618
2546 3 1621
2547 1 1618
2547 2 1136
2547 3 1621
2548 1 1136
2548 2 1139
2548 3 1621
2549 1 1132
2549 2 1138
2549 3 1622
2550 1 1138
2550 2 1612
2550 3 1622
2551 1 1612
2551 2 1611
2551 3 1622
2552 1 1611
2552 2 612
2552 3 1622
2553 1 1500
2553 2 385
2553 3 1623
2554 1 385
2554 2 1610
2554 3 1623
2555 1 1610
2555 2 1608
2555 3 1623
2556 1 1608
2556 2 1624
2556 3 1623
2557 1 1623
2557 2 1624
2557 3 13
2558 1 1624
2558 2 1609
2558 3 12
2559 1 1609
2559 2 1624
2559 3 1608
2560 1 1135
2560 2 1607
2560 3 1625
2561 1 1607
2561 2 1612
2561 3 1625
2562 1 1612
2562 2 1138
2562 3 1625
2563 1 1138
2563 2 1136
2563 3 1625
2564 1 1618
2564 2 1617
2564 3 1626
2565 1 1617
2565 2 1135
2565 3 1626
2566 1 1135
2566 2 1625
2566 3 1626
2567 1 1625
2567 2 1136
2567 3 1626
2568 1 1114
2568 2 1414
2568 3 1627
2569 1 1414
2569 2 1396
2569 3 1627
2570 1 1392
2570 2 1395
2570 3 1628
2571 1 1395
2571 2 1627
2571 3 1628
2572 1 1627
2572 2 1396
2572 3 1628
2573 1 1396
2573 2 1400
2573 3 1628
2574 1 1400
2574 2 491
2574 3 1628
2575 1 491
2575 2 1394
2575 3 1628
2576 1 1114
2576 2 1627
2576 3 1629
2577 1 1627
2577 2 1395
2577 3 1629
2578 1 1395
2578 2 1620
2578 3 1629
2579 1 1620
2579 2 1122
2579 3 1629
2580 1 217
2580 2 493
2580 3 1630
2581 1 493
2581 2 1386
2581 3 1630
2582 1 1386
2582 2 1383
2582 3 1630
2583 1 1370
2583 2 1368
2583 3 1631
2584 1 1631
2584 2 1633
2584 3 159
2585 1 494
2585 2 1378
2585 3 1632
2586 1 1378
2586 2 1379
2586 3 1632
2587 1 1379
2587 2 1370
2587 3 1632
2588 1 1370
2588 2 1631
2588 3 1632
2589 1 1631
2589 2 1326
2589 3 1632
2590 1 1633
2590 2 1631
2590 3 1368
2591 1 520
2591 2 503
2591 3 1636
2592 1 1362
2592 2 1587
2592 3 1634
2593 1 1587
2593 2 242
2593 3 1634
2594 1 1357
2594 2 1366
2594 3 1635
2595 1 1366
2595 2 1362
2595 3 1635
2596 1 1362
2596 2 1634
2596 3 1635
2597 1 503
2597 2 522
2597 3 1636
2598 1 522
2598 2 1359
2598 3 1636
2599 1 1359
2599 2 1357
2599 3 1636
2600 1 1357
2600 2 1635
2600 3 1636
2601 1 1635
2601 2 520
2601 3 1636
2602 1 521
2602 2 520
2602 3 1637
2603 1 520
2603 2 1635
2603 3 1637
2604 1 1635
2604 2 1634
2604 3 1637
2605 1 1634
2605 2 242
2605 3 1637
2606 1 982
2606 2 1638
2606 3 242
2607 1 1637
2607 2 1638
2607 3 521
2608 1 1638
2608 2 982
2608 3 521
2609 1 1341
2609 2 1339
2609 3 1639
2610 1 1339
2610 2 1351
2610 3 1639
2611 1 1351
2611 2 1375
2611 3 1639
2612 1 1375
2612 2 1340
2612 3 1639
2613 1 1329
2613 2 1640
2613 3 189
2614 1 188
2614 2 1640
2614 3 1641
2615 1 1640
2615 2 1329
2615 3 1641
2616 1 1329
2616 2 1195
2616 3 1641
2617 1 1642
2617 2 188
2617 3 1874
2618 1 1193
2618 2 1196
2618 3 1643
2619 1 1196
2619 2 430
2619 3 1643
2620 1 430
2620 2 187
2620 3 1643
2621 1 187
2621 2 1642
2621 3 1643
2622 1 494
2622 2 1632
2622 3 1644
2623 1 1632
2623 2 1326
2623 3 1644
2624 1 1326
2624 2 1325
2624 3 1644
2625 1 1325
2625 2 495
2625 3 1644
2626 1 160
2626 2 435
2626 3 1645
2627 1 435
2627 2 1325
2627 3 1645
2628 1 1325
2628 2 1326
2628 3 1645
2629 1 1326
2629 2 1631
2629 3 1645
2630 1 1631
2630 2 159
2630 3 1645
2631 1 329
2631 2 272
2631 3 1648
2632 1 402
2632 2 1303
2632 3 1646
2633 1 1303
2633 2 1305
2633 3 1646
2634 1 514
2634 2 84
2634 3 1650
2635 1 1646
2635 2 1305
2635 3 1647
2636 1 272
2636 2 402
2636 3 1648
2637 1 402
2637 2 1646
2637 3 1648
2638 1 1646
2638 2 1647
2638 3 1648
2639 1 504
2639 2 275
2639 3 1649
2640 1 275
2640 2 329
2640 3 1649
2641 1 329
2641 2 1648
2641 3 1649
2642 1 1648
2642 2 1647
2642 3 1649
2643 1 504
2643 2 1649
2643 3 1650
2644 1 1649
2644 2 1647
2644 3 1650
2645 1 1647
2645 2 514
2645 3 1650
2646 1 514
2646 2 1647
2646 3 1651
2647 1 1647
2647 2 1305
2647 3 1651
2648 1 519
2648 2 518
2648 3 1652
2649 1 518
2649 2 515
2649 3 1652
2650 1 515
2650 2 1651
2650 3 1652
2651 1 1305
2651 2 1304
2651 3 1653
2652 1 1304
2652 2 516
2652 3 1653
2653 1 516
2653 2 519
2653 3 1653
2654 1 519
2654 2 1652
2654 3 1653
2655 1 1652
2655 2 1651
2655 3 1653
2656 1 1651
2656 2 1305
2656 3 1653
2657 1 512
2657 2 1296
2657 3 1654
2658 1 1296
2658 2 1295
2658 3 1654
2659 1 1295
2659 2 1278
2659 3 1654
2660 1 1278
2660 2 1284
2660 3 1654
2661 1 518
2661 2 519
2661 3 1655
2662 1 519
2662 2 1294
2662 3 1655
2663 1 1663
2663 2 80
2663 3 1666
2664 1 409
2664 2 1655
2664 3 1656
2665 1 1655
2665 2 1294
2665 3 1656
2666 1 1656
2666 2 1294
2666 3 1661
2667 1 1293
2667 2 512
2667 3 1658
2668 1 1294
2668 2 1293
2668 3 1658
2669 1 1657
2669 2 1658
2669 3 1659
2670 1 1658
2670 2 512
2670 3 1659
2671 1 505
2671 2 1657
2671 3 1660
2672 1 1657
2672 2 1659
2672 3 1660
2673 1 1659
2673 2 513
2673 3 1660
2674 1 513
2674 2 73
2674 3 1660
2675 1 1294
2675 2 1658
2675 3 1661
2676 1 1658
2676 2 1657
2676 3 1661
2677 1 1656
2677 2 1661
2677 3 1662
2678 1 1661
2678 2 1657
2678 3 1662
2679 1 1657
2679 2 505
2679 3 1662
2680 1 505
2680 2 79
2680 3 1662
2681 1 1662
2681 2 79
2681 3 1664
2682 1 1665
2682 2 1664
2682 3 79
2683 1 1656
2683 2 1662
2683 3 1664
2684 1 1664
2684 2 1665
2684 3 1663
2685 1 80
2685 2 410
2685 3 1666
2686 1 410
2686 2 409
2686 3 1666
2687 1 409
2687 2 1656
2687 3 1666
2688 1 1656
2688 2 1664
2688 3 1666
2689 1 1664
2689 2 1663
2689 3 1666
2690 1 1281
2690 2 1287
2690 3 1670
2691 1 1005
2691 2 1007
2691 3 1669
2692 1 1668
2692 2 1883
2692 3 71
2693 1 1007
2693 2 1668
2693 3 1669
2694 1 1668
2694 2 1667
2694 3 1669
2695 1 1287
2695 2 1285
2695 3 1670
2696 1 1285
2696 2 1669
2696 3 1670
2697 1 1669
2697 2 1667
2697 3 1670
2698 1 1670
2698 2 1667
2698 3 1673
2699 1 1675
2699 2 1672
2699 3 1671
2700 1 1281
2700 2 1670
2700 3 1673
2701 1 1672
2701 2 1673
2701 3 1674
2702 1 1673
2702 2 1667
2702 3 1674
2703 1 1667
2703 2 1668
2703 3 1674
2704 1 1668
2704 2 71
2704 3 1674
2705 1 71
2705 2 1671
2705 3 1674
2706 1 1672
2706 2 1675
2706 3 72
2707 1 1281
2707 2 1673
2707 3 1676
2708 1 1673
2708 2 1672
2708 3 1676
2709 1 1672
2709 2 72
2709 3 1677
2710 1 72
2710 2 513
2710 3 1677
2711 1 512
2711 2 1654
2711 3 1678
2712 1 1676
2712 2 1672
2712 3 1677
2713 1 1654
2713 2 1284
2713 3 1678
2714 1 1284
2714 2 1676
2714 3 1678
2715 1 1676
2715 2 1677
2715 3 1678
2716 1 1677
2716 2 513
2716 3 1678
2717 1 513
2717 2 1659
2717 3 1678
2718 1 1659
2718 2 512
2718 3 1678
2719 1 1282
2719 2 1281
2719 3 1679
2720 1 1281
2720 2 1676
2720 3 1679
2721 1 1676
2721 2 1284
2721 3 1679
2722 1 1284
2722 2 1283
2722 3 1679
2723 1 1005
2723 2 1669
2723 3 1680
2724 1 1669
2724 2 1285
2724 3 1680
2725 1 1285
2725 2 1286
2725 3 1680
2726 1 1286
2726 2 995
2726 3 1680
2727 1 222
2727 2 1164
2727 3 1681
2728 1 1164
2728 2 1163
2728 3 1681
2729 1 1163
2729 2 1162
2729 3 1681
2730 1 1162
2730 2 220
2730 3 1681
2731 1 220
2731 2 221
2731 3 1681
2732 1 221
2732 2 1272
2732 3 1681
2733 1 674
2733 2 300
2733 3 1682
2734 1 1268
2734 2 1266
2734 3 1682
2735 1 1266
2735 2 675
2735 3 1682
2736 1 603
2736 2 602
2736 3 1687
2737 1 1268
2737 2 1682
2737 3 1683
2738 1 1682
2738 2 300
2738 3 1683
2739 1 300
2739 2 1426
2739 3 1683
2740 1 1426
2740 2 440
2740 3 1683
2741 1 375
2741 2 1268
2741 3 1685
2742 1 1268
2742 2 1683
2742 3 1684
2743 1 1268
2743 2 1684
2743 3 1685
2744 1 1684
2744 2 600
2744 3 1685
2745 1 1684
2745 2 1683
2745 3 1686
2746 1 1683
2746 2 440
2746 3 1686
2747 1 602
2747 2 600
2747 3 1687
2748 1 600
2748 2 1684
2748 3 1687
2749 1 1684
2749 2 1686
2749 3 1687
2750 1 1686
2750 2 603
2750 3 1687
2751 1 600
2751 2 601
2751 3 1689
2752 1 376
2752 2 1269
2752 3 1688
2753 1 1269
2753 2 375
2753 3 1688
2754 1 601
2754 2 419
2754 3 1689
2755 1 419
2755 2 376
2755 3 1689
2756 1 376
2756 2 1688
2756 3 1689
2757 1 1688
2757 2 375
2757 3 1689
2758 1 375
2758 2 1685
2758 3 1689
2759 1 1685
2759 2 600
2759 3 1689
2760 1 85
2760 2 1252
2760 3 1690
2761 1 1252
2761 2 276
2761 3 1690
2762 1 276
2762 2 504
2762 3 1690
2763 1 504
2763 2 1650
2763 3 1690
2764 1 1650
2764 2 84
2764 3 1690
2765 1 1248
2765 2 481
2765 3 1691
2766 1 481
2766 2 1251
2766 3 1691
2767 1 1251
2767 2 226
2767 3 1691
2768 1 226
2768 2 227
2768 3 1691
2769 1 544
2769 2 1248
2769 3 1692
2770 1 228
2770 2 229
2770 3 1693
2771 1 229
2771 2 667
2771 3 1693
2772 1 667
2772 2 666
2772 3 1693
2773 1 666
2773 2 1692
2773 3 1693
2774 1 1692
2774 2 1248
2774 3 1693
2775 1 1248
2775 2 228
2775 3 1693
2776 1 544
2776 2 1692
2776 3 1694
2777 1 1692
2777 2 832
2777 3 1694
2778 1 829
2778 2 834
2778 3 1696
2779 1 923
2779 2 545
2779 3 1695
2780 1 545
2780 2 1694
2780 3 1695
2781 1 1694
2781 2 832
2781 3 1695
2782 1 832
2782 2 829
2782 3 1695
2783 1 834
2783 2 833
2783 3 1696
2784 1 833
2784 2 923
2784 3 1696
2785 1 923
2785 2 1695
2785 3 1696
2786 1 1695
2786 2 829
2786 3 1696
2787 1 315
2787 2 558
2787 3 1698
2788 1 559
2788 2 1247
2788 3 1697
2789 1 1247
2789 2 247
2789 3 1697
2790 1 247
2790 2 316
2790 3 1697
2791 1 558
2791 2 559
2791 3 1698
2792 1 559
2792 2 1697
2792 3 1698
2793 1 1697
2793 2 316
2793 3 1698
2794 1 316
2794 2 344
2794 3 1698
2795 1 344
2795 2 315
2795 3 1698
2796 1 660
2796 2 661
2796 3 1699
2797 1 661
2797 2 1528
2797 3 1699
2798 1 1528
2798 2 1244
2798 3 1699
2799 1 1244
2799 2 658
2799 3 1699
2800 1 569
2800 2 1239
2800 3 1700
2801 1 1239
2801 2 1237
2801 3 1700
2802 1 1237
2802 2 1238
2802 3 1700
2803 1 1174
2803 2 1175
2803 3 1701
2804 1 1175
2804 2 1700
2804 3 1701
2805 1 1700
2805 2 1238
2805 3 1701
2806 1 1238
2806 2 1530
2806 3 1701
2807 1 1530
2807 2 1173
2807 3 1701
2808 1 449
2808 2 198
2808 3 1703
2809 1 198
2809 2 1702
2809 3 1703
2810 1 1232
2810 2 1231
2810 3 1704
2811 1 1231
2811 2 449
2811 3 1703
2812 1 1231
2812 2 1703
2812 3 1704
2813 1 1703
2813 2 1702
2813 3 1704
2814 1 1705
2814 2 1704
2814 3 1702
2815 1 1705
2815 2 1232
2815 3 1704
2816 1 1233
2816 2 1228
2816 3 1706
2817 1 1228
2817 2 1232
2817 3 1706
2818 1 1232
2818 2 1219
2818 3 1706
2819 1 1219
2819 2 1227
2819 3 1706
2820 1 1227
2820 2 1225
2820 3 1706
2821 1 200
2821 2 1221
2821 3 1707
2822 1 1221
2822 2 1219
2822 3 1707
2823 1 1219
2823 2 1232
2823 3 1707
2824 1 1232
2824 2 1705
2824 3 1707
2825 1 1705
2825 2 199
2825 3 1707
2826 1 1191
2826 2 1195
2826 3 1708
2827 1 1195
2827 2 1382
2827 3 1708
2828 1 1382
2828 2 1381
2828 3 1708
2829 1 1381
2829 2 1192
2829 3 1708
2830 1 162
2830 2 496
2830 3 1709
2831 1 496
2831 2 1199
2831 3 1709
2832 1 1199
2832 2 494
2832 3 1709
2833 1 494
2833 2 1644
2833 3 1709
2834 1 1644
2834 2 495
2834 3 1709
2835 1 1710
2835 2 1178
2835 3 1179
2836 1 1710
2836 2 285
2836 3 286
2837 1 1178
2837 2 1710
2837 3 286
2838 1 285
2838 2 1710
2838 3 1711
2839 1 1710
2839 2 287
2839 3 1711
2840 1 630
2840 2 628
2840 3 1713
2841 1 610
2841 2 283
2841 3 1715
2842 1 284
2842 2 1711
2842 3 1712
2843 1 628
2843 2 985
2843 3 1714
2844 1 1712
2844 2 1711
2844 3 1713
2845 1 1711
2845 2 287
2845 3 1713
2846 1 287
2846 2 630
2846 3 1713
2847 1 985
2847 2 984
2847 3 1714
2848 1 984
2848 2 998
2848 3 1714
2849 1 998
2849 2 990
2849 3 1714
2850 1 1712
2850 2 1713
2850 3 1714
2851 1 1713
2851 2 628
2851 3 1714
2852 1 283
2852 2 284
2852 3 1715
2853 1 284
2853 2 1712
2853 3 1715
2854 1 609
2854 2 610
2854 3 1715
2855 1 609
2855 2 1715
2855 3 1716
2856 1 1715
2856 2 1712
2856 3 1716
2857 1 1712
2857 2 1714
2857 3 1716
2858 1 1714
2858 2 990
2858 3 1716
2859 1 1169
2859 2 604
2859 3 1717
2860 1 604
2860 2 1178
2860 3 1717
2861 1 286
2861 2 285
2861 3 1722
2862 1 611
2862 2 1177
2862 3 1721
2863 1 1717
2863 2 1178
2863 3 1718
2864 1 1717
2864 2 1718
2864 3 1719
2865 1 1172
2865 2 1170
2865 3 1719
2866 1 1169
2866 2 1717
2866 3 1720
2867 1 1717
2867 2 1719
2867 3 1720
2868 1 1719
2868 2 1170
2868 3 1720
2869 1 1170
2869 2 1535
2869 3 1720
2870 1 1177
2870 2 1172
2870 3 1721
2871 1 1172
2871 2 1719
2871 3 1721
2872 1 1719
2872 2 1718
2872 3 1721
2873 1 285
2873 2 611
2873 3 1722
2874 1 611
2874 2 1721
2874 3 1722
2875 1 1721
2875 2 1718
2875 3 1722
2876 1 1718
2876 2 1178
2876 3 1722
2877 1 1178
2877 2 286
2877 3 1722
2878 1 288
2878 2 287
2878 3 1723
2879 1 287
2879 2 1710
2879 3 1723
2880 1 1710
2880 2 1179
2880 3 1723
2881 1 1179
2881 2 394
2881 3 1723
2882 1 1246
2882 2 564
2882 3 1724
2883 1 1224
2883 2 569
2883 3 1725
2884 1 1175
2884 2 461
2884 3 1724
2885 1 569
2885 2 1700
2885 3 1725
2886 1 1700
2886 2 1175
2886 3 1725
2887 1 1175
2887 2 1724
2887 3 1725
2888 1 1724
2888 2 564
2888 3 1725
2889 1 564
2889 2 1223
2889 3 1725
2890 1 1223
2890 2 1224
2890 3 1725
2891 1 1437
2891 2 1169
2891 3 1726
2892 1 1169
2892 2 1720
2892 3 1726
2893 1 1720
2893 2 1535
2893 3 1726
2894 1 1535
2894 2 414
2894 3 1726
2895 1 290
2895 2 605
2895 3 1727
2896 1 605
2896 2 1165
2896 3 1727
2897 1 1165
2897 2 378
2897 3 1727
2898 1 1140
2898 2 1139
2898 3 1728
2899 1 1139
2899 2 1137
2899 3 1728
2900 1 1137
2900 2 621
2900 3 1728
2901 1 1118
2901 2 1121
2901 3 1729
2902 1 1121
2902 2 1131
2902 3 1729
2903 1 1131
2903 2 1129
2903 3 1729
2904 1 1129
2904 2 1099
2904 3 1729
2905 1 1140
2905 2 1728
2905 3 1730
2906 1 1728
2906 2 1098
2906 3 1730
2907 1 1131
2907 2 1121
2907 3 1730
2908 1 1093
2908 2 1095
2908 3 1731
2909 1 1095
2909 2 1130
2909 3 1731
2910 1 1130
2910 2 1131
2910 3 1731
2911 1 1131
2911 2 1730
2911 3 1731
2912 1 1730
2912 2 1098
2912 3 1731
2913 1 30
2913 2 537
2913 3 1732
2914 1 537
2914 2 1128
2914 3 1732
2915 1 1128
2915 2 1130
2915 3 1732
2916 1 1130
2916 2 1095
2916 3 1732
2917 1 1123
2917 2 1099
2917 3 1733
2918 1 1099
2918 2 1100
2918 3 1733
2919 1 1100
2919 2 1126
2919 3 1733
2920 1 1126
2920 2 1101
2920 3 1733
2921 1 1101
2921 2 1124
2921 3 1733
2922 1 1124
2922 2 1105
2922 3 1733
2923 1 1119
2923 2 1114
2923 3 1734
2924 1 1114
2924 2 1629
2924 3 1734
2925 1 1629
2925 2 1122
2925 3 1734
2926 1 1122
2926 2 1120
2926 3 1734
2927 1 1120
2927 2 1116
2927 3 1734
2928 1 639
2928 2 638
2928 3 1735
2929 1 638
2929 2 1113
2929 3 1735
2930 1 1113
2930 2 1110
2930 3 1735
2931 1 1110
2931 2 1111
2931 3 1736
2932 1 1111
2932 2 44
2932 3 1736
2933 1 639
2933 2 1737
2933 3 1742
2934 1 1735
2934 2 1110
2934 3 1736
2935 1 639
2935 2 1735
2935 3 1737
2936 1 1736
2936 2 44
2936 3 1739
2937 1 1741
2937 2 1737
2937 3 1738
2938 1 1740
2938 2 1739
2938 3 44
2939 1 1738
2939 2 1737
2939 3 1739
2940 1 1737
2940 2 1735
2940 3 1739
2941 1 1735
2941 2 1736
2941 3 1739
2942 1 1739
2942 2 1740
2942 3 1738
2943 1 1737
2943 2 1741
2943 3 1742
2944 1 1741
2944 2 45
2944 3 1742
2945 1 45
2945 2 336
2945 3 1742
2946 1 297
2946 2 298
2946 3 1743
2947 1 298
2947 2 1084
2947 3 1743
2948 1 1084
2948 2 1081
2948 3 1743
2949 1 1081
2949 2 1079
2949 3 1743
2950 1 1041
2950 2 1082
2950 3 1744
2951 1 1082
2951 2 1064
2951 3 1744
2952 1 1063
2952 2 485
2952 3 1745
2953 1 485
2953 2 1046
2953 3 1745
2954 1 1046
2954 2 1041
2954 3 1745
2955 1 1041
2955 2 1744
2955 3 1745
2956 1 1744
2956 2 1064
2956 3 1745
2957 1 1008
2957 2 1072
2957 3 1746
2958 1 1072
2958 2 1023
2958 3 1746
2959 1 1023
2959 2 1022
2959 3 1746
2960 1 1022
2960 2 1003
2960 3 1746
2961 1 1716
2961 2 990
2961 3 1747
2962 1 990
2962 2 991
2962 3 1747
2963 1 991
2963 2 992
2963 3 1747
2964 1 992
2964 2 993
2964 3 1747
2965 1 993
2965 2 609
2965 3 1747
2966 1 967
2966 2 975
2966 3 1748
2967 1 975
2967 2 974
2967 3 1748
2968 1 974
2968 2 976
2968 3 1748
2969 1 976
2969 2 332
2969 3 1748
2970 1 332
2970 2 480
2970 3 1748
2971 1 735
2971 2 331
2971 3 1749
2972 1 331
2972 2 974
2972 3 1749
2973 1 974
2973 2 973
2973 3 1749
2974 1 1750
2974 2 972
2974 3 968
2975 1 728
2975 2 724
2975 3 1752
2976 1 734
2976 2 1749
2976 3 1751
2977 1 1749
2977 2 973
2977 3 1751
2978 1 973
2978 2 970
2978 3 1751
2979 1 970
2979 2 123
2979 3 1751
2980 1 734
2980 2 1751
2980 3 1752
2981 1 1751
2981 2 123
2981 3 1752
2982 1 122
2982 2 1750
2982 3 1753
2983 1 1750
2983 2 968
2983 3 1753
2984 1 968
2984 2 969
2984 3 1753
2985 1 969
2985 2 958
2985 3 1753
2986 1 1754
2986 2 1753
2986 3 960
2987 1 1753
2987 2 1754
2987 3 122
2988 1 1754
2988 2 961
2988 3 121
2989 1 1630
2989 2 1755
2989 3 217
2990 1 1755
2990 2 215
2990 3 949
2991 1 1755
2991 2 1630
2991 3 216
2992 1 215
2992 2 1755
2992 3 216
2993 1 680
2993 2 682
2993 3 1756
2994 1 682
2994 2 681
2994 3 1756
2995 1 48
2995 2 1757
2995 3 281
2996 1 1757
2996 2 1756
2996 3 933
2997 1 1757
2997 2 49
2997 3 282
2998 1 49
2998 2 1757
2998 3 48
2999 1 1756
2999 2 1757
2999 3 282
3000 1 692
3000 2 940
3000 3 1758
3001 1 940
3001 2 933
3001 3 1758
3002 1 933
3002 2 1756
3002 3 1758
3003 1 1756
3003 2 681
3003 3 1758
3004 1 149
3004 2 1507
3004 3 1759
3005 1 1507
3005 2 433
3005 3 1759
3006 1 433
3006 2 927
3006 3 1759
3007 1 927
3007 2 925
3007 3 1759
3008 1 925
3008 2 455
3008 3 1759
3009 1 866
3009 2 870
3009 3 1760
3010 1 870
3010 2 862
3010 3 1760
3011 1 862
3011 2 894
3011 3 1760
3012 1 327
3012 2 865
3012 3 1761
3013 1 865
3013 2 863
3013 3 1761
3014 1 863
3014 2 1760
3014 3 1761
3015 1 1760
3015 2 894
3015 3 1761
3016 1 894
3016 2 895
3016 3 1761
3017 1 895
3017 2 578
3017 3 1761
3018 1 883
3018 2 888
3018 3 1762
3019 1 872
3019 2 871
3019 3 1762
3020 1 870
3020 2 868
3020 3 1764
3021 1 872
3021 2 1762
3021 3 1763
3022 1 1762
3022 2 888
3022 3 1763
3023 1 888
3023 2 893
3023 3 1763
3024 1 893
3024 2 862
3024 3 1763
3025 1 868
3025 2 872
3025 3 1764
3026 1 872
3026 2 1763
3026 3 1764
3027 1 1763
3027 2 862
3027 3 1764
3028 1 862
3028 2 870
3028 3 1764
3029 1 894
3029 2 893
3029 3 1766
3030 1 890
3030 2 456
3030 3 1765
3031 1 893
3031 2 890
3031 3 1766
3032 1 890
3032 2 1765
3032 3 1766
3033 1 1765
3033 2 577
3033 3 1766
3034 1 577
3034 2 895
3034 3 1766
3035 1 895
3035 2 894
3035 3 1766
3036 1 1319
3036 2 509
3036 3 1767
3037 1 509
3037 2 846
3037 3 1767
3038 1 846
3038 2 849
3038 3 1767
3039 1 849
3039 2 473
3039 3 1767
3040 1 828
3040 2 831
3040 3 1768
3041 1 831
3041 2 832
3041 3 1768
3042 1 832
3042 2 1692
3042 3 1768
3043 1 1692
3043 2 666
3043 3 1768
3044 1 476
3044 2 830
3044 3 1769
3045 1 830
3045 2 831
3045 3 1769
3046 1 831
3046 2 828
3046 3 1769
3047 1 828
3047 2 341
3047 3 1769
3048 1 825
3048 2 827
3048 3 1770
3049 1 827
3049 2 828
3049 3 1770
3050 1 828
3050 2 666
3050 3 1770
3051 1 666
3051 2 231
3051 3 1770
3052 1 821
3052 2 479
3052 3 1771
3053 1 479
3053 2 478
3053 3 1771
3054 1 478
3054 2 815
3054 3 1771
3055 1 815
3055 2 822
3055 3 1771
3056 1 822
3056 2 820
3056 3 1771
3057 1 823
3057 2 806
3057 3 1772
3058 1 806
3058 2 807
3058 3 1772
3059 1 454
3059 2 1772
3059 3 1773
3060 1 1772
3060 2 807
3060 3 1773
3061 1 807
3061 2 803
3061 3 1773
3062 1 802
3062 2 452
3062 3 1774
3063 1 452
3063 2 453
3063 3 1774
3064 1 453
3064 2 805
3064 3 1774
3065 1 805
3065 2 804
3065 3 1774
3066 1 804
3066 2 1773
3066 3 1774
3067 1 1773
3067 2 803
3067 3 1774
3068 1 454
3068 2 1773
3068 3 1775
3069 1 1773
3069 2 804
3069 3 1775
3070 1 804
3070 2 805
3070 3 1775
3071 1 805
3071 2 406
3071 3 1775
3072 1 406
3072 2 455
3072 3 1775
3073 1 451
3073 2 801
3073 3 1776
3074 1 1776
3074 2 800
3074 3 1778
3075 1 800
3075 2 797
3075 3 1778
3076 1 797
3076 2 1777
3076 3 1778
3077 1 747
3077 2 750
3077 3 1780
3078 1 1776
3078 2 1778
3078 3 1779
3079 1 1778
3079 2 1777
3079 3 1779
3080 1 750
3080 2 451
3080 3 1780
3081 1 451
3081 2 1776
3081 3 1780
3082 1 1776
3082 2 1779
3082 3 1780
3083 1 1779
3083 2 747
3083 3 1780
3084 1 749
3084 2 747
3084 3 1781
3085 1 747
3085 2 1779
3085 3 1781
3086 1 93
3086 2 701
3086 3 1782
3087 1 701
3087 2 1781
3087 3 1782
3088 1 1781
3088 2 1779
3088 3 1782
3089 1 1779
3089 2 1777
3089 3 1782
3090 1 800
3090 2 1776
3090 3 1783
3091 1 1776
3091 2 801
3091 3 1783
3092 1 801
3092 2 803
3092 3 1783
3093 1 803
3093 2 790
3093 3 1783
3094 1 796
3094 2 1784
3094 3 92
3095 1 778
3095 2 779
3095 3 1795
3096 1 1785
3096 2 785
3096 3 1786
3097 1 785
3097 2 788
3097 3 1786
3098 1 788
3098 2 710
3098 3 1786
3099 1 1785
3099 2 1786
3099 3 1787
3100 1 1788
3100 2 130
3100 3 1790
3101 1 1786
3101 2 710
3101 3 1789
3102 1 129
3102 2 1788
3102 3 1789
3103 1 130
3103 2 1787
3103 3 1790
3104 1 1787
3104 2 1786
3104 3 1790
3105 1 1786
3105 2 1789
3105 3 1790
3106 1 1789
3106 2 1788
3106 3 1790
3107 1 1785
3107 2 1787
3107 3 1791
3108 1 131
3108 2 511
3108 3 1800
3109 1 784
3109 2 1791
3109 3 1792
3110 1 1787
3110 2 130
3110 3 1793
3111 1 1794
3111 2 1793
3111 3 130
3112 1 1792
3112 2 1791
3112 3 1793
3113 1 1791
3113 2 1787
3113 3 1793
3114 1 1794
3114 2 1792
3114 3 1793
3115 1 779
3115 2 786
3115 3 1795
3116 1 786
3116 2 785
3116 3 1795
3117 1 785
3117 2 1785
3117 3 1795
3118 1 782
3118 2 778
3118 3 1796
3119 1 778
3119 2 1795
3119 3 1796
3120 1 1795
3120 2 1785
3120 3 1796
3121 1 1785
3121 2 1791
3121 3 1796
3122 1 1791
3122 2 784
3122 3 1796
3123 1 781
3123 2 782
3123 3 1798
3124 1 784
3124 2 1792
3124 3 1797
3125 1 511
3125 2 510
3125 3 1797
3126 1 782
3126 2 1796
3126 3 1798
3127 1 1796
3127 2 784
3127 3 1798
3128 1 784
3128 2 1797
3128 3 1798
3129 1 510
3129 2 1311
3129 3 1799
3130 1 1311
3130 2 1208
3130 3 1799
3131 1 1208
3131 2 781
3131 3 1799
3132 1 781
3132 2 1798
3132 3 1799
3133 1 1798
3133 2 1797
3133 3 1799
3134 1 1797
3134 2 510
3134 3 1799
3135 1 511
3135 2 1797
3135 3 1800
3136 1 1797
3136 2 1792
3136 3 1800
3137 1 1792
3137 2 1794
3137 3 1800
3138 1 1794
3138 2 131
3138 3 1800
3139 1 755
3139 2 776
3139 3 1801
3140 1 776
3140 2 783
3140 3 1801
3141 1 783
3141 2 768
3141 3 1801
3142 1 146
3142 2 453
3142 3 1802
3143 1 453
3143 2 452
3143 3 1804
3144 1 761
3144 2 758
3144 3 1802
3145 1 145
3145 2 1802
3145 3 1803
3146 1 1802
3146 2 758
3146 3 1803
3147 1 758
3147 2 773
3147 3 1803
3148 1 452
3148 2 761
3148 3 1804
3149 1 761
3149 2 1802
3149 3 1804
3150 1 1802
3150 2 453
3150 3 1804
3151 1 776
3151 2 755
3151 3 1805
3152 1 755
3152 2 763
3152 3 1805
3153 1 763
3153 2 759
3153 3 1805
3154 1 759
3154 2 756
3154 3 1805
3155 1 746
3155 2 743
3155 3 1806
3156 1 743
3156 2 754
3156 3 1806
3157 1 754
3157 2 752
3157 3 1806
3158 1 752
3158 2 750
3158 3 1806
3159 1 651
3159 2 749
3159 3 1807
3160 1 698
3160 2 1807
3160 3 1808
3161 1 1807
3161 2 749
3161 3 1808
3162 1 749
3162 2 1781
3162 3 1808
3163 1 1781
3163 2 701
3163 3 1808
3164 1 725
3164 2 723
3164 3 1809
3165 1 723
3165 2 722
3165 3 1809
3166 1 722
3166 2 735
3166 3 1809
3167 1 735
3167 2 734
3167 3 1809
3168 1 734
3168 2 1752
3168 3 1809
3169 1 1752
3169 2 724
3169 3 1809
3170 1 649
3170 2 716
3170 3 1810
3171 1 716
3171 2 715
3171 3 1810
3172 1 715
3172 2 725
3172 3 1810
3173 1 725
3173 2 714
3173 3 1810
3174 1 711
3174 2 129
3174 3 1811
3175 1 129
3175 2 1789
3175 3 1811
3176 1 1789
3176 2 710
3176 3 1811
3177 1 710
3177 2 705
3177 3 1811
3178 1 94
3178 2 700
3178 3 1812
3179 1 700
3179 2 698
3179 3 1812
3180 1 698
3180 2 1808
3180 3 1812
3181 1 1808
3181 2 701
3181 3 1812
3182 1 701
3182 2 93
3182 3 1812
3183 1 93
3183 2 702
3183 3 1812
3184 1 401
3184 2 294
3184 3 1813
3185 1 294
3185 2 672
3185 3 1813
3186 1 672
3186 2 299
3186 3 1815
3187 1 1265
3187 2 574
3187 3 1814
3188 1 574
3188 2 1813
3188 3 1814
3189 1 675
3189 2 1265
3189 3 1814
3190 1 299
3190 2 674
3190 3 1815
3191 1 674
3191 2 675
3191 3 1815
3192 1 675
3192 2 1814
3192 3 1815
3193 1 1814
3193 2 1813
3193 3 1815
3194 1 1813
3194 2 672
3194 3 1815
3195 1 652
3195 2 1816
3195 3 96
3196 1 700
3196 2 699
3196 3 1817
3197 1 699
3197 2 95
3197 3 1817
3198 1 95
3198 2 1816
3198 3 1817
3199 1 1816
3199 2 652
3199 3 1817
3200 1 652
3200 2 651
3200 3 1818
3201 1 651
3201 2 1807
3201 3 1818
3202 1 1807
3202 2 698
3202 3 1818
3203 1 698
3203 2 1817
3203 3 1818
3204 1 1817
3204 2 652
3204 3 1818
3205 1 245
3205 2 322
3205 3 1819
3206 1 322
3206 2 636
3206 3 1819
3207 1 636
3207 2 1820
3207 3 1819
3208 1 1819
3208 2 1820
3208 3 244
3209 1 1820
3209 2 560
3209 3 244
3210 1 1820
3210 2 636
3210 3 243
3211 1 1820
3211 2 1585
3211 3 560
3212 1 625
3212 2 627
3212 3 1821
3213 1 627
3213 2 386
3213 3 1821
3214 1 386
3214 2 16
3214 3 1821
3215 1 612
3215 2 1613
3215 3 1822
3216 1 1613
3216 2 627
3216 3 1822
3217 1 627
3217 2 625
3217 3 1822
3218 1 625
3218 2 616
3218 3 1822
3219 1 23
3219 2 502
3219 3 1823
3220 1 502
3220 2 1089
3220 3 1823
3221 1 1089
3221 2 1090
3221 3 1823
3222 1 1090
3222 2 22
3222 3 1823
3223 1 1133
3223 2 1132
3223 3 1824
3224 1 1132
3224 2 1622
3224 3 1824
3225 1 1622
3225 2 612
3225 3 1824
3226 1 612
3226 2 1822
3226 3 1824
3227 1 1822
3227 2 616
3227 3 1824
3228 1 614
3228 2 613
3228 3 1825
3229 1 613
3229 2 1824
3229 3 1825
3230 1 1824
3230 2 616
3230 3 1825
3231 1 616
3231 2 624
3231 3 1825
3232 1 624
3232 2 18
3232 3 1825
3233 1 18
3233 2 615
3233 3 1825
3234 1 283
3234 2 607
3234 3 1826
3235 1 607
3235 2 397
3235 3 1826
3236 1 397
3236 2 1177
3236 3 1826
3237 1 1177
3237 2 611
3237 3 1826
3238 1 611
3238 2 285
3238 3 1826
3239 1 1
3239 2 602
3239 3 1827
3240 1 602
3240 2 603
3240 3 1827
3241 1 1827
3241 2 1828
3241 3 1
3242 1 305
3242 2 212
3242 3 1829
3243 1 212
3243 2 0
3243 3 1829
3244 1 0
3244 2 1827
3244 3 1829
3245 1 1827
3245 2 603
3245 3 1829
3246 1 603
3246 2 1686
3246 3 1829
3247 1 1686
3247 2 304
3247 3 1829
3248 1 1830
3248 2 1214
3248 3 589
3249 1 1214
3249 2 1830
3249 3 183
3250 1 1835
3250 2 1832
3250 3 1831
3251 1 182
3251 2 1830
3251 3 1834
3252 1 589
3252 2 587
3252 3 1833
3253 1 587
3253 2 582
3253 3 1833
3254 1 582
3254 2 1832
3254 3 1833
3255 1 1830
3255 2 589
3255 3 1834
3256 1 589
3256 2 1833
3256 3 1834
3257 1 1833
3257 2 1832
3257 3 1834
3258 1 1835
3258 2 1834
3258 3 1832
3259 1 1834
3259 2 1835
3259 3 182
3260 1 583
3260 2 445
3260 3 1837
3261 1 445
3261 2 591
3261 3 1852
3262 1 582
3262 2 583
3262 3 1838
3263 1 583
3263 2 1837
3263 3 1838
3264 1 1832
3264 2 582
3264 3 1839
3265 1 582
3265 2 1838
3265 3 1839
3266 1 1838
3266 2 1837
3266 3 1840
3267 1 1837
3267 2 1836
3267 3 1840
3268 1 1839
3268 2 1838
3268 3 1840
3269 1 1831
3269 2 1832
3269 3 1845
3270 1 1839
3270 2 1840
3270 3 1841
3271 1 1840
3271 2 1836
3271 3 1841
3272 1 1836
3272 2 1837
3272 3 1847
3273 1 1843
3273 2 1842
3273 3 180
3274 1 181
3274 2 1841
3274 3 1842
3275 1 1841
3275 2 1836
3275 3 1842
3276 1 1842
3276 2 1843
3276 3 181
3277 1 180
3277 2 1842
3277 3 1844
3278 1 1832
3278 2 1839
3278 3 1845
3279 1 1839
3279 2 1841
3279 3 1845
3280 1 1841
3280 2 1846
3280 3 1845
3281 1 1845
3281 2 1846
3281 3 1831
3282 1 1846
3282 2 1841
3282 3 181
3283 1 1844
3283 2 1842
3283 3 1848
3284 1 1842
3284 2 1836
3284 3 1848
3285 1 1836
3285 2 1847
3285 3 1848
3286 1 1847
3286 2 437
3286 3 1849
3287 1 438
3287 2 174
3287 3 1854
3288 1 1506
3288 2 177
3288 3 1850
3289 1 1851
3289 2 1850
3289 3 177
3290 1 437
3290 2 1211
3290 3 1853
3291 1 1851
3291 2 1849
3291 3 1850
3292 1 591
3292 2 437
3292 3 1852
3293 1 437
3293 2 1847
3293 3 1852
3294 1 1847
3294 2 1837
3294 3 1852
3295 1 1837
3295 2 445
3295 3 1852
3296 1 1211
3296 2 438
3296 3 1853
3297 1 1850
3297 2 1849
3297 3 1853
3298 1 1849
3298 2 437
3298 3 1853
3299 1 174
3299 2 1506
3299 3 1854
3300 1 1506
3300 2 1850
3300 3 1854
3301 1 1850
3301 2 1853
3301 3 1854
3302 1 1853
3302 2 438
3302 3 1854
3303 1 1844
3303 2 1848
3303 3 1855
3304 1 1848
3304 2 1847
3304 3 1855
3305 1 1847
3305 2 1849
3305 3 1855
3306 1 1849
3306 2 1851
3306 3 1855
3307 1 1851
3307 2 178
3307 3 1855
3308 1 1857
3308 2 179
3308 3 1858
3309 1 179
3309 2 1856
3309 3 1858
3310 1 1856
3310 2 180
3310 3 1858
3311 1 180
3311 2 1844
3311 3 1858
3312 1 1844
3312 2 1855
3312 3 1858
3313 1 1855
3313 2 178
3313 3 1858
3314 1 178
3314 2 1857
3314 3 1858
3315 1 271
3315 2 382
3315 3 1859
3316 1 382
3316 2 577
3316 3 1859
3317 1 577
3317 2 457
3317 3 1859
3318 1 1249
3318 2 544
3318 3 1860
3319 1 544
3319 2 1694
3319 3 1860
3320 1 1694
3320 2 545
3320 3 1860
3321 1 545
3321 2 327
3321 3 1860
3322 1 327
3322 2 543
3322 3 1860
3323 1 32
3323 2 498
3323 3 1861
3324 1 498
3324 2 1275
3324 3 1861
3325 1 1275
3325 2 537
3325 3 1861
3326 1 537
3326 2 30
3326 3 1861
3327 1 30
3327 2 31
3327 3 1861
3328 1 267
3328 2 465
3328 3 1862
3329 1 465
3329 2 464
3329 3 1862
3330 1 464
3330 2 533
3330 3 1862
3331 1 533
3331 2 532
3331 3 1862
3332 1 532
3332 2 265
3332 3 1862
3333 1 514
3333 2 1651
3333 3 1863
3334 1 1651
3334 2 515
3334 3 1863
3335 1 74
3335 2 75
3335 3 1864
3336 1 75
3336 2 77
3336 3 1864
3337 1 77
3337 2 505
3337 3 1864
3338 1 505
3338 2 1660
3338 3 1864
3339 1 1660
3339 2 73
3339 3 1864
3340 1 1148
3340 2 1865
3340 3 219
3341 1 507
3341 2 1865
3341 3 218
3342 1 1865
3342 2 1149
3342 3 218
3343 1 472
3343 2 1866
3343 3 196
3344 1 1866
3344 2 350
3344 3 195
3345 1 438
3345 2 1867
3345 3 173
3346 1 1867
3346 2 443
3346 3 444
3347 1 1868
3347 2 1440
3347 3 439
3348 1 1868
3348 2 1686
3348 3 440
3349 1 1868
3349 2 439
3349 3 304
3350 1 1686
3350 2 1868
3350 3 304
3351 1 1440
3351 2 1868
3351 3 303
3352 1 1869
3352 2 83
3352 3 1870
3353 1 83
3353 2 1863
3353 3 1870
3354 1 1863
3354 2 515
3354 3 1870
3355 1 515
3355 2 391
3355 3 1870
3356 1 391
3356 2 393
3356 3 1870
3357 1 393
3357 2 82
3357 3 1870
3358 1 82
3358 2 1869
3358 3 1870
3359 1 1871
3359 2 93
3359 3 1872
3360 1 93
3360 2 1782
3360 3 1872
3361 1 1782
3361 2 1777
3361 3 1872
3362 1 797
3362 2 92
3362 3 1873
3363 1 92
3363 2 1871
3363 3 1873
3364 1 1871
3364 2 1872
3364 3 1873
3365 1 1872
3365 2 1777
3365 3 1873
3366 1 1777
3366 2 797
3366 3 1873
3367 1 188
3367 2 1641
3367 3 1874
3368 1 1641
3368 2 1195
3368 3 1874
3369 1 1195
3369 2 1193
3369 3 1874
3370 1 1193
3370 2 1643
3370 3 1874
3371 1 1643
3371 2 1642
3371 3 1874
3372 1 1565
3372 2 1875
3372 3 470
3373 1 1566
3373 2 1875
3373 3 1565
3374 1 1742
3374 2 336
3374 3 1876
3375 1 336
3375 2 1385
3375 3 1876
3376 1 1385
3376 2 1384
3376 3 1876
3377 1 1384
3377 2 1593
3377 3 1876
3378 1 1593
3378 2 639
3378 3 1876
3379 1 1630
3379 2 1383
3379 3 1877
3380 1 1383
3380 2 1384
3380 3 1877
3381 1 1384
3381 2 1385
3381 3 1877
3382 1 1385
3382 2 216
3382 3 1877
3383 1 493
3383 2 1149
3383 3 1878
3384 1 1149
3384 2 1152
3384 3 1878
3385 1 1152
3385 2 1410
3385 3 1878
3386 1 1410
3386 2 492
3386 3 1878
3387 1 1000
3387 2 987
3387 3 1879
3388 1 987
3388 2 632
3388 3 1879
3389 1 632
3389 2 1032
3389 3 1879
3390 1 1032
3390 2 1033
3390 3 1879
3391 1 1033
3391 2 631
3391 3 1879
3392 1 1021
3392 2 1011
3392 3 1880
3393 1 1011
3393 2 1070
3393 3 1880
3394 1 1070
3394 2 1019
3394 3 1880
3395 1 1019
3395 2 1012
3395 3 1880
3396 1 568
3396 2 1881
3396 3 255
3397 1 447
3397 2 1881
3397 3 256
3398 1 1881
3398 2 567
3398 3 256
3399 1 1399
3399 2 1882
3399 3 10
3400 1 1409
3400 2 1882
3400 3 1399
3401 1 1024
3401 2 1883
3401 3 1007
3402 1 1883
3402 2 1668
3402 3 1007
3403 1 728
3403 2 1884
3403 3 124
3404 1 1752
3404 2 1884
3404 3 728
3405 1 1885
3405 2 773
3405 3 771
3406 1 1803
3406 2 1885
3406 3 145
