%%MatrixMarket matrix coordinate  real general
778 1 778
1 1 2.02364927630700270e-01
2 1 1.81455376758744708e-01
3 1 1.64242214737754882e-01
4 1 1.50872880639046025e-01
5 1 1.41330708309177239e-01
6 1 1.36688024369047423e-01
7 1 1.28623083065739913e-01
8 1 1.16871725969381654e-01
9 1 1.11531200171699874e-01
10 1 1.08873890272563695e-01
11 1 1.06381094279034499e-01
12 1 1.05230129337674463e-01
13 1 1.08363485550996202e-01
14 1 1.13459438267710558e-01
15 1 1.14830899542380974e-01
16 1 1.14225153395817153e-01
17 1 1.13378829363676728e-01
18 1 1.11886194590138682e-01
19 1 1.11011340988726920e-01
20 1 1.13876783356757966e-01
21 1 1.10499110581785354e-01
22 1 1.07455379679963076e-01
23 1 1.10358862259749779e-01
24 1 1.13917900541695594e-01
25 1 1.15213700986771472e-01
26 1 1.15165419214469586e-01
27 1 1.14175133805205650e-01
28 1 1.15048380275993734e-01
29 1 1.12951415882984574e-01
30 1 1.12104679774081423e-01
31 1 1.06003991984801954e-01
32 1 1.09169383632927969e-01
33 1 1.11621722929989578e-01
34 1 1.13314543888918123e-01
35 1 1.14842801501821856e-01
36 1 1.15667250834221746e-01
37 1 1.15083470020836326e-01
38 1 1.13878014205255548e-01
39 1 1.11286861861551858e-01
40 1 1.11351934523112206e-01
41 1 1.11969529115436103e-01
42 1 1.09666134004220664e-01
43 1 1.08088589724245732e-01
44 1 1.04403665531132131e-01
45 1 1.03687557081959508e-01
46 1 1.08728136191858241e-01
47 1 1.10516224704759775e-01
48 1 1.11860791788574859e-01
49 1 1.13598578994670157e-01
50 1 1.20742694525800442e-01
51 1 1.27614953993038543e-01
52 1 1.27747312317305961e-01
53 1 1.31468949369202420e-01
54 1 1.33780809917708049e-01
55 1 1.33167825482626345e-01
56 1 1.27564555285909959e-01
57 1 1.24504443088766736e-01
58 1 1.22499593645124055e-01
59 1 1.20322821639493205e-01
60 1 1.18860976562920315e-01
61 1 1.18841725975251236e-01
62 1 1.18225407950854622e-01
63 1 1.18689560151237647e-01
64 1 1.21420253133002240e-01
65 1 1.23161708080863491e-01
66 1 1.23847950717502223e-01
67 1 1.19830126900428269e-01
68 1 1.21269487986148436e-01
69 1 1.23332134194295798e-01
70 1 1.26010274097289182e-01
71 1 1.26029967131229437e-01
72 1 1.18786183254543307e-01
73 1 1.11959668327112932e-01
74 1 1.14196997191809216e-01
75 1 1.17599481830254607e-01
76 1 1.20064015899025600e-01
77 1 1.21400419874222051e-01
78 1 1.18214802248145040e-01
79 1 1.14647256767463152e-01
80 1 1.11534235873648482e-01
81 1 1.10264645629931018e-01
82 1 1.10873960459304075e-01
83 1 1.10405047117826990e-01
84 1 1.08357347990252900e-01
85 1 1.08961784440751178e-01
86 1 1.14351000483717408e-01
87 1 1.25949386088244408e-01
88 1 1.36996625646409048e-01
89 1 1.45791054597645353e-01
90 1 1.73281763690404711e-01
91 1 1.56752629603282734e-01
92 1 1.50277208650584110e-01
93 1 1.36289227192916335e-01
94 1 1.42544828554594605e-01
95 1 1.81795103555665694e-01
96 1 1.88890821636311129e-01
97 1 1.83227176444819229e-01
98 1 1.73145950561019751e-01
99 1 1.57405077535608229e-01
100 1 1.44982833489387036e-01
101 1 1.22705282500761792e-01
102 1 1.17442751381596142e-01
103 1 1.18883155527848949e-01
104 1 1.23574415661507842e-01
105 1 1.24090681614026407e-01
106 1 1.17628329865968759e-01
107 1 1.18514420165286752e-01
108 1 1.25755303486093706e-01
109 1 1.63283192738820526e-01
110 1 2.34281243889327057e-01
111 1 2.59642969044791616e-01
112 1 2.42451908067381039e-01
113 1 2.97440008415080059e-01
114 1 3.14310139632817065e-01
115 1 3.65559111936973546e-01
116 1 3.69620972416105475e-01
117 1 3.93473923699983352e-01
118 1 4.49845448565920070e-01
119 1 4.02901981540898735e-01
120 1 2.95099281943074776e-01
121 1 2.47253326744200835e-01
122 1 2.13383341310864227e-01
123 1 1.98594215468484436e-01
124 1 2.02757627186190253e-01
125 1 2.18502900665362099e-01
126 1 2.16597416752150107e-01
127 1 2.21255550817001989e-01
128 1 2.53121406933247639e-01
129 1 2.62046493239158129e-01
130 1 2.25075116526591928e-01
131 1 1.69259209452936044e-01
132 1 1.50592064689413968e-01
133 1 1.49908093211664345e-01
134 1 1.49504880630436543e-01
135 1 1.47548711139356803e-01
136 1 1.43712801403121704e-01
137 1 1.37563807094376267e-01
138 1 1.27620507216668427e-01
139 1 1.26609024188838987e-01
140 1 1.25533489343961469e-01
141 1 1.25461642998618589e-01
142 1 1.24056126850579554e-01
143 1 1.23841047405728585e-01
144 1 1.33763557506410224e-01
145 1 1.41745802546451138e-01
146 1 1.41733480816197494e-01
147 1 1.41436653382702310e-01
148 1 1.38301506763766652e-01
149 1 1.36274651990517526e-01
150 1 1.26738786253317914e-01
151 1 1.17239915165452110e-01
152 1 1.17600171374021956e-01
153 1 1.21156760802894045e-01
154 1 1.21741982741624205e-01
155 1 1.19716782003171152e-01
156 1 1.16649937338757337e-01
157 1 1.14570641534062614e-01
158 1 1.13867878387706650e-01
159 1 1.19384852332865596e-01
160 1 1.33430043339302862e-01
161 1 1.34802837495790445e-01
162 1 1.27856735005199201e-01
163 1 1.23818527922036556e-01
164 1 1.20247341889794579e-01
165 1 1.18052422544003582e-01
166 1 1.23245884816177820e-01
167 1 1.31550167913364296e-01
168 1 1.35106034260934621e-01
169 1 1.35755814072165193e-01
170 1 1.37181164328639610e-01
171 1 1.38858565949739304e-01
172 1 1.39646325903905522e-01
173 1 1.41814723140212012e-01
174 1 1.36997954040669861e-01
175 1 1.34602649628360743e-01
176 1 1.31535765360226375e-01
177 1 1.31982043663084914e-01
178 1 1.34559069577695894e-01
179 1 1.34678234549369780e-01
180 1 1.27576831511947208e-01
181 1 1.27509731874632798e-01
182 1 1.29796403600661581e-01
183 1 1.63399985585733903e-01
184 1 1.50724375103617692e-01
185 1 1.35271166453999697e-01
186 1 1.32467401033849186e-01
187 1 1.18849734660151293e-01
188 1 1.10347182421179815e-01
189 1 1.02983542350899543e-01
190 1 1.03661062265383214e-01
191 1 1.03613819254881820e-01
192 1 1.01725128772583467e-01
193 1 9.98107990642342763e-02
194 1 1.05603835864630638e-01
195 1 1.04951477092244450e-01
196 1 1.03499961848291785e-01
197 1 1.00990087059496303e-01
198 1 1.01976932667135395e-01
199 1 1.03675711163060583e-01
200 1 1.21556978209045347e-01
201 1 1.43145983267081389e-01
202 1 1.48444365756498081e-01
203 1 1.30669389055567686e-01
204 1 1.09699264455099491e-01
205 1 1.09047660879297251e-01
206 1 1.09590198977385117e-01
207 1 1.09539772064366991e-01
208 1 1.09056707129703875e-01
209 1 1.08110067188174216e-01
210 1 1.08737377621562756e-01
211 1 1.12873694686488640e-01
212 1 1.46890553546877189e-01
213 1 2.11528136420065377e-01
214 1 1.11003746554018609e-01
215 1 1.08945510096608078e-01
216 1 1.05492358414780260e-01
217 1 1.07547542233549454e-01
218 1 1.09942969802182738e-01
219 1 1.12849217333421653e-01
220 1 1.14979767595944207e-01
221 1 1.12062560797280192e-01
222 1 1.04272152968764686e-01
223 1 1.09902363315483698e-01
224 1 1.18597176626456288e-01
225 1 1.43360465834801387e-01
226 1 1.48958919315746841e-01
227 1 1.25590502182018116e-01
228 1 1.23467999782647039e-01
229 1 1.14869197719058569e-01
230 1 1.17415914309184827e-01
231 1 1.15288644983716659e-01
232 1 1.10384846014020779e-01
233 1 1.12919386537042477e-01
234 1 1.11264343121470016e-01
235 1 1.10568995457270697e-01
236 1 1.10142258999401152e-01
237 1 1.12857167674599274e-01
238 1 1.17284473400336819e-01
239 1 1.19744510317911779e-01
240 1 1.18084279666979389e-01
241 1 1.19549553099525280e-01
242 1 1.25685587196486065e-01
243 1 1.36095512889717912e-01
244 1 1.40287814703064007e-01
245 1 1.54321857420814390e-01
246 1 1.60182802286359921e-01
247 1 1.65238795217331758e-01
248 1 1.79008587442336969e-01
249 1 1.65269697372670360e-01
250 1 1.75455450931412238e-01
251 1 1.96031692584151651e-01
252 1 1.79414927866598101e-01
253 1 1.69431998529184724e-01
254 1 1.81086691428110652e-01
255 1 2.05189065761662737e-01
256 1 2.34801136623995127e-01
257 1 2.40692732171426754e-01
258 1 1.94250217998385294e-01
259 1 1.74232223670763048e-01
260 1 1.67485599568512389e-01
261 1 1.27061735390077313e-01
262 1 1.04692558409989075e-01
263 1 9.93977333010185177e-02
264 1 1.01185286221233822e-01
265 1 1.01268326863789448e-01
266 1 1.04614137093313672e-01
267 1 1.05464356838780290e-01
268 1 1.06253040163253792e-01
269 1 1.06615946625137459e-01
270 1 1.06656598935604169e-01
271 1 1.06491378849726898e-01
272 1 1.04966512277657534e-01
273 1 1.05795492974943298e-01
274 1 1.04121424979885552e-01
275 1 1.04644355515167653e-01
276 1 1.09118531649566058e-01
277 1 1.12288945567879495e-01
278 1 1.02391424736380812e-01
279 1 1.02703426016877472e-01
280 1 1.03310982212487440e-01
281 1 1.03103068169829323e-01
282 1 1.08752530706195463e-01
283 1 1.20482909098191787e-01
284 1 1.10479968128064598e-01
285 1 1.09067026077381724e-01
286 1 1.19925684440374131e-01
287 1 1.28067659076744805e-01
288 1 1.13593428435233859e-01
289 1 1.10466228474766032e-01
290 1 1.13739963543970340e-01
291 1 1.28173942581129269e-01
292 1 1.21156970874397391e-01
293 1 1.23140358477393991e-01
294 1 1.04685982419511034e-01
295 1 1.04114399435352251e-01
296 1 1.03582335564267089e-01
297 1 1.03380382258086975e-01
298 1 1.04260737133658909e-01
299 1 1.03877459255464044e-01
300 1 1.18550555283500114e-01
301 1 1.39444355083701288e-01
302 1 1.52845385296175973e-01
303 1 1.92252656194718402e-01
304 1 2.09974825269365811e-01
305 1 2.14708410457505799e-01
306 1 2.15473388487896045e-01
307 1 1.11430476675022316e-01
308 1 1.20092198595913288e-01
309 1 1.84776669790309211e-01
310 1 1.22166311405516148e-01
311 1 1.25392203192682267e-01
312 1 1.10628857295737265e-01
313 1 1.12102481634298951e-01
314 1 1.09722902593269250e-01
315 1 1.12182736625016238e-01
316 1 1.33187615636468082e-01
317 1 1.48606226825958865e-01
318 1 1.24764076588914682e-01
319 1 1.24770522792451502e-01
320 1 1.64554540600471921e-01
321 1 1.81472085209386458e-01
322 1 1.44346625603447076e-01
323 1 1.20609028872900592e-01
324 1 1.17866647761586840e-01
325 1 2.14939615062163303e-01
326 1 2.20788095262115680e-01
327 1 1.03221811199339014e-01
328 1 1.07164400348393196e-01
329 1 1.05557220518150960e-01
330 1 1.09571863180939061e-01
331 1 1.08400408066428686e-01
332 1 1.15486576609005034e-01
333 1 9.52734737023160916e-02
334 1 9.56796817909787989e-02
335 1 9.99163775221057759e-02
336 1 1.07120905550731921e-01
337 1 1.07295144991051236e-01
338 1 9.98729664507699844e-02
339 1 1.04514565577585039e-01
340 1 1.20908972019129840e-01
341 1 1.21105450357321370e-01
342 1 1.06256645044201542e-01
343 1 1.12254157538208860e-01
344 1 1.13452057822940849e-01
345 1 1.15006908039605643e-01
346 1 1.11268067169338014e-01
347 1 1.31920693262267602e-01
348 1 1.39856101510590414e-01
349 1 1.09380911014455379e-01
350 1 1.05765611205281787e-01
351 1 1.02822720384047758e-01
352 1 1.36226531488974872e-01
353 1 1.31809975550469999e-01
354 1 1.10290845103697688e-01
355 1 1.11745319287563233e-01
356 1 1.54857877014672879e-01
357 1 1.44758786585604649e-01
358 1 1.21423175917548129e-01
359 1 1.50941381768605304e-01
360 1 1.33031472913732796e-01
361 1 1.67765709527966433e-01
362 1 1.52244289610577010e-01
363 1 1.01725490968250329e-01
364 1 1.06181527996247402e-01
365 1 1.05817591430506369e-01
366 1 1.75478327268485584e-01
367 1 2.08171472502803656e-01
368 1 2.11864388657017511e-01
369 1 2.13146591273974062e-01
370 1 1.15829014900200089e-01
371 1 1.05854370290696165e-01
372 1 1.06261470829871113e-01
373 1 1.08733428161625054e-01
374 1 1.33503804581960539e-01
375 1 2.27500335608775112e-01
376 1 2.02459082192156081e-01
377 1 2.12844176652816602e-01
378 1 1.43434550872764799e-01
379 1 1.39180191438588396e-01
380 1 1.79006464913314040e-01
381 1 1.26328800627323851e-01
382 1 1.24635000631333884e-01
383 1 1.16539099104727428e-01
384 1 1.16015567444556419e-01
385 1 1.48916875603705590e-01
386 1 1.20995424902790236e-01
387 1 1.15563926586032151e-01
388 1 1.39316504289924620e-01
389 1 2.08947470545382374e-01
390 1 1.00747621958977560e-01
391 1 1.28474307492892736e-01
392 1 1.69576081103127635e-01
393 1 1.47392794468683086e-01
394 1 1.48623162417180432e-01
395 1 1.55496229650305018e-01
396 1 1.08199227715228607e-01
397 1 1.02794824521895256e-01
398 1 1.06575218293747415e-01
399 1 1.23935878901834357e-01
400 1 1.11915629275736089e-01
401 1 5.14615385928358871e-01
402 1 3.45498892604784225e-01
403 1 9.97051376874859285e-02
404 1 1.00288456711315893e-01
405 1 1.42628049500304915e-01
406 1 1.36890761704064778e-01
407 1 1.30363133965754469e-01
408 1 1.10816496088023325e-01
409 1 1.12106809754989517e-01
410 1 1.01190104045433535e-01
411 1 1.05180945208398463e-01
412 1 1.18370822581205279e-01
413 1 1.19138019260331296e-01
414 1 1.25473551873414746e-01
415 1 1.08036104898833710e-01
416 1 1.13069347282939991e-01
417 1 1.21183196012618191e-01
418 1 1.02826842866206941e-01
419 1 1.08072642991960191e-01
420 1 1.19741146590202824e-01
421 1 1.07887771182824124e-01
422 1 1.08549611208737948e-01
423 1 1.07690340268356513e-01
424 1 1.33792116589275645e-01
425 1 1.06830662149804217e-01
426 1 1.32964145173207704e-01
427 1 1.04785169583084994e-01
428 1 1.24567020279112081e-01
429 1 1.67919155807469772e-01
430 1 9.97258156457524469e-02
431 1 1.20439484528172672e-01
432 1 1.48054428087644629e-01
433 1 1.03898302786392727e-01
434 1 9.81196030708028910e-02
435 1 1.08576480209595982e-01
436 1 1.42931487713908872e-01
437 1 1.41645995021544985e-01
438 1 9.87266043413179695e-02
439 1 1.25291536495455103e-01
440 1 1.08761690342268486e-01
441 1 1.11322071323222013e-01
442 1 1.09404008653621654e-01
443 1 1.31850459408881820e-01
444 1 1.95988753420538564e-01
445 1 2.03117461729257320e-01
446 1 2.08562845904584016e-01
447 1 1.01118736794482023e-01
448 1 1.40422343971451008e-01
449 1 1.08478344955310696e-01
450 1 3.04245242733842458e-01
451 1 2.18513640472709686e-01
452 1 1.70009724476713309e-01
453 1 1.60875353326976361e-01
454 1 9.51351704561405748e-02
455 1 1.32451531152096263e-01
456 1 1.06786700234902984e-01
457 1 1.26194181711641595e-01
458 1 1.36580655542548501e-01
459 1 1.34669374999845465e-01
460 1 1.03945723454323347e-01
461 1 1.06984360394927466e-01
462 1 1.05008100409746993e-01
463 1 1.10421622908819392e-01
464 1 1.20716593684823958e-01
465 1 1.00032629682511351e-01
466 1 1.50888414333899129e-01
467 1 1.15759629104308370e-01
468 1 1.38800318531390604e-01
469 1 1.25809298069816278e-01
470 1 1.31637484759734524e-01
471 1 1.20969971596703821e-01
472 1 1.38075818330369748e-01
473 1 1.01585187117099060e-01
474 1 1.02174425803290142e-01
475 1 1.05097803478108598e-01
476 1 2.27350961291748976e-01
477 1 1.82054685652490167e-01
478 1 9.99480275329494988e-02
479 1 1.02905082424104857e-01
480 1 1.10328962577102632e-01
481 1 1.07312047199999649e-01
482 1 1.07981339730368275e-01
483 1 1.07011705063262422e-01
484 1 9.90303465356033030e-02
485 1 9.96657691086745567e-02
486 1 1.00466914995903989e-01
487 1 1.48055695883833077e-01
488 1 1.79346798567450560e-01
489 1 1.42304016240071052e-01
490 1 1.42201893252815320e-01
491 1 1.09771639669888718e-01
492 1 1.14973150335591162e-01
493 1 1.09263558129899976e-01
494 1 1.08184745022431084e-01
495 1 1.31365353175172811e-01
496 1 2.17605109580405298e-01
497 1 1.49090914447889855e-01
498 1 1.48368059812325370e-01
499 1 1.00406536970566576e-01
500 1 9.81863803626959880e-02
501 1 1.01319418840157549e-01
502 1 9.50043367250743009e-02
503 1 1.06415094535464924e-01
504 1 1.09892191009167070e-01
505 1 1.39960218843207723e-01
506 1 1.20567595849863207e-01
507 1 1.83244298678782558e-01
508 1 1.17958247061028892e-01
509 1 1.42480446608753447e-01
510 1 1.37660506515449477e-01
511 1 1.84957799665442124e-01
512 1 2.11949897731746689e-01
513 1 1.11069435130904393e-01
514 1 1.42129927069455986e-01
515 1 1.03593306076255581e-01
516 1 1.01517325833289568e-01
517 1 1.04082573735746545e-01
518 1 1.09628625101678506e-01
519 1 1.02214371187757641e-01
520 1 1.82698125846647352e-01
521 1 1.79732408986877257e-01
522 1 1.90139221307814438e-01
523 1 1.90019620042871651e-01
524 1 2.46988417661593240e-01
525 1 1.62522371304533259e-01
526 1 1.15279047562499751e-01
527 1 1.27646597659686001e-01
528 1 1.24655867410427154e-01
529 1 1.17732060889068901e-01
530 1 1.88094862813194985e-01
531 1 2.07621390721051596e-01
532 1 1.66619501302599837e-01
533 1 1.02535233870327397e-01
534 1 1.00849275714648814e-01
535 1 1.04527638223224445e-01
536 1 9.98388972363359883e-02
537 1 1.01740676982510436e-01
538 1 1.04932260348928594e-01
539 1 1.04190162721360349e-01
540 1 1.19502103018107833e-01
541 1 1.05196463996749479e-01
542 1 1.08408678755004248e-01
543 1 1.00394137031708519e-01
544 1 1.16525916366019805e-01
545 1 1.04240679722759355e-01
546 1 1.09341064846395344e-01
547 1 1.06344919640401853e-01
548 1 1.16470084123864892e-01
549 1 1.19197144036482058e-01
550 1 1.25079522479061511e-01
551 1 1.17302210349622169e-01
552 1 1.08120954482661569e-01
553 1 1.06770483126007010e-01
554 1 1.07794669278444444e-01
555 1 1.00667536128657656e-01
556 1 1.04468696147271223e-01
557 1 1.07554295485559503e-01
558 1 9.99898790413630001e-02
559 1 1.03617072112837869e-01
560 1 1.03002606050566270e-01
561 1 1.05138816945130997e-01
562 1 1.05268992633405084e-01
563 1 1.22753555918736601e-01
564 1 1.15871809797698427e-01
565 1 1.13019680502512376e-01
566 1 1.47709197974817380e-01
567 1 1.51856696643602129e-01
568 1 1.29023096223783773e-01
569 1 1.35434521008972963e-01
570 1 1.20847536520259521e-01
571 1 1.22131746794086130e-01
572 1 1.10578244582782523e-01
573 1 9.82219225549482156e-02
574 1 1.00675597012262807e-01
575 1 1.18036741103492521e-01
576 1 1.31587109985171591e-01
577 1 1.14278344816346619e-01
578 1 1.17890263868475439e-01
579 1 1.06914063653337416e-01
580 1 1.09485916724325436e-01
581 1 1.04282836106404181e-01
582 1 1.15220795820683675e-01
583 1 4.45373775948600503e-01
584 1 1.35610388742001209e-01
585 1 1.12240263677136756e-01
586 1 1.15062401887901594e-01
587 1 1.29602968214145603e-01
588 1 1.27222221448853950e-01
589 1 1.20731288892859681e-01
590 1 1.11830542028143798e-01
591 1 1.56769328475785702e-01
592 1 1.17562561510688904e-01
593 1 1.08243334954504694e-01
594 1 1.26281448561389897e-01
595 1 9.85935347573671794e-02
596 1 9.78888066599865742e-02
597 1 1.11568223177299600e-01
598 1 1.28963187548328972e-01
599 1 1.24170149692139881e-01
600 1 1.23417028759484793e-01
601 1 1.19938378344307220e-01
602 1 1.59266742646735182e-01
603 1 1.46900478276461161e-01
604 1 1.22442377003376374e-01
605 1 1.37775206036065689e-01
606 1 1.13192902675963339e-01
607 1 1.28097143878612124e-01
608 1 1.05135372683666350e-01
609 1 1.08187824207979219e-01
610 1 9.91444437665107425e-02
611 1 9.69901086422659681e-02
612 1 1.05712132480037690e-01
613 1 1.78255720028237807e-01
614 1 1.74043120663853940e-01
615 1 1.08602022811569165e-01
616 1 1.26035908121714585e-01
617 1 1.25563979809734244e-01
618 1 1.19683278788389219e-01
619 1 1.08937862580710226e-01
620 1 1.11219577970657985e-01
621 1 1.17020433546732402e-01
622 1 1.19398337798484619e-01
623 1 1.25142274369869522e-01
624 1 1.28939422805343595e-01
625 1 1.12621144929703085e-01
626 1 1.22444177409763016e-01
627 1 1.13605997535036085e-01
628 1 1.31287468042514649e-01
629 1 1.17784197001474106e-01
630 1 1.10666026168826592e-01
631 1 1.09809701013866667e-01
632 1 1.10195112704225037e-01
633 1 1.10718783266305729e-01
634 1 1.20388929996313149e-01
635 1 1.13055191571282659e-01
636 1 1.06155007103669111e-01
637 1 1.07398948030759056e-01
638 1 9.36762070493235843e-02
639 1 9.58316599528306889e-02
640 1 9.58139889729941185e-02
641 1 9.65364497904637048e-02
642 1 9.85212020668402855e-02
643 1 9.70943356015666476e-02
644 1 9.81462532336359050e-02
645 1 1.05354447568579188e-01
646 1 1.01558948016404624e-01
647 1 1.02142018732294754e-01
648 1 9.94587995494358307e-02
649 1 1.09850782278561140e-01
650 1 1.08444211592485268e-01
651 1 9.87905777317551054e-02
652 1 1.17863282174814413e-01
653 1 1.00899230981030513e-01
654 1 1.07877769074976995e-01
655 1 1.00311994877796726e-01
656 1 1.07206885771928037e-01
657 1 1.03025815653700836e-01
658 1 9.64500759715881950e-02
659 1 9.44915423698945989e-02
660 1 9.45416705910002569e-02
661 1 1.02305413099379683e-01
662 1 9.67324157487114145e-02
663 1 9.42785779315728351e-02
664 1 1.00453412371230746e-01
665 1 1.02790356890153867e-01
666 1 1.12418050149639542e-01
667 1 1.16754501745313460e-01
668 1 1.18273017978959269e-01
669 1 1.14230764612094193e-01
670 1 1.04706130376711962e-01
671 1 1.02260447753974290e-01
672 1 1.08016518279083554e-01
673 1 1.20269402718734625e-01
674 1 1.01935865535501061e-01
675 1 1.01742316082049616e-01
676 1 1.06789870780411633e-01
677 1 1.08613456065227348e-01
678 1 1.05108158952164368e-01
679 1 1.03318913379982433e-01
680 1 1.15124383850101833e-01
681 1 1.26974934327969025e-01
682 1 1.12863439761746981e-01
683 1 1.13911172527252580e-01
684 1 1.27947741277190441e-01
685 1 1.26877166773282396e-01
686 1 1.06172904003064533e-01
687 1 1.94594841931100104e-01
688 1 2.02831644284367285e-01
689 1 2.15744709191626527e-01
690 1 1.81770471500790176e-01
691 1 1.91678712322298328e-01
692 1 1.56022680885031406e-01
693 1 1.33553450709739729e-01
694 1 1.43381962097694216e-01
695 1 1.51962745153857798e-01
696 1 1.48897794206297063e-01
697 1 1.37634923499892925e-01
698 1 1.42140366689983838e-01
699 1 1.45022090267385495e-01
700 1 1.45665504255488271e-01
701 1 1.55058755848790197e-01
702 1 1.29316504677562949e-01
703 1 1.17966582667422257e-01
704 1 1.32656357061986668e-01
705 1 1.15130951822567523e-01
706 1 1.29834270319502315e-01
707 1 1.74294982248487274e-01
708 1 1.46253634283926737e-01
709 1 1.14883421627193352e-01
710 1 1.27640422603955694e-01
711 1 1.23505217139586468e-01
712 1 1.20752309425873727e-01
713 1 1.35368375880007913e-01
714 1 1.41336198535497976e-01
715 1 9.52732408008939435e-02
716 1 9.49990317053318600e-02
717 1 1.66187320125885218e-01
718 1 1.10100210834254655e-01
719 1 1.08462299904983975e-01
720 1 1.08753650352018505e-01
721 1 1.09751288511281034e-01
722 1 1.59351434189970248e-01
723 1 1.60617732731697049e-01
724 1 1.03928136688647740e-01
725 1 1.04370008119596902e-01
726 1 1.01300250621887661e-01
727 1 1.02139081271444387e-01
728 1 1.03974822790569355e-01
729 1 2.42768996468985254e-01
730 1 1.81322811103290044e-01
731 1 1.09890968830928110e-01
732 1 1.44773711760179197e-01
733 1 1.34144590318629742e-01
734 1 1.39066528491353036e-01
735 1 1.38460042158692259e-01
736 1 1.37931462999223320e-01
737 1 1.31594085316535991e-01
738 1 1.41637040190698338e-01
739 1 1.42507840452391843e-01
740 1 1.13224869369392675e-01
741 1 1.10535038402044469e-01
742 1 1.14208952589601426e-01
743 1 1.29239092688818669e-01
744 1 1.07302452533823214e-01
745 1 1.22614648338801951e-01
746 1 9.45158799056328297e-02
747 1 9.61442329215976277e-02
748 1 1.02170277833828177e-01
749 1 9.96054263015242469e-02
750 1 1.00522751266317142e-01
751 1 9.59660466821509878e-02
752 1 9.35932101390041377e-02
753 1 9.86777308071045967e-02
754 1 1.01658437215472325e-01
755 1 1.21898110596005346e-01
756 1 1.78384769830139789e-01
757 1 1.99160458776331345e-01
758 1 1.11641676770237008e-01
759 1 5.03996058515494338e-01
760 1 3.94050997495843713e-01
761 1 2.15068754204094270e-01
762 1 1.75773540543123608e-01
763 1 2.13203822622231864e-01
764 1 1.73884467108281204e-01
765 1 1.90396765914919913e-01
766 1 1.39663587296036201e-01
767 1 1.18169805670701913e-01
768 1 1.16612611323581250e-01
769 1 1.36035339598985783e-01
770 1 1.05568594787667613e-01
771 1 1.82115743937535546e-01
772 1 1.44784235250967619e-01
773 1 1.19131976275906146e-01
774 1 1.18073660256858642e-01
775 1 9.79998842249557439e-02
776 1 1.10702909725562681e-01
777 1 1.63117067228300744e-01
778 1 2.39896580749933086e-01
