%%MatrixMarket matrix coordinate  real general
1886 2 3772
1 1 1.50848607999999984e-07
2 1 1.49995823000000035e-07
3 1 1.48976393000000019e-07
4 1 1.47796590000000005e-07
5 1 1.47179145999999997e-07
6 1 1.47173624000000004e-07
7 1 1.46281948000000009e-07
8 1 1.45098599999999999e-07
9 1 1.44101390999999990e-07
10 1 1.42539128999999995e-07
11 1 1.41456890000000019e-07
12 1 1.40734720000000013e-07
13 1 1.39959716999999996e-07
14 1 1.39376401999999966e-07
15 1 1.39187497999999994e-07
16 1 1.37234039000000006e-07
17 1 1.37000379999999998e-07
18 1 1.35300170000000008e-07
19 1 1.34897156000000004e-07
20 1 1.33505936000000011e-07
21 1 1.34091978000000007e-07
22 1 1.33949242000000035e-07
23 1 1.32921695999999987e-07
24 1 1.31922827000000017e-07
25 1 1.31582689000000005e-07
26 1 1.31549691999999978e-07
27 1 1.31901196999999984e-07
28 1 1.31542673000000007e-07
29 1 1.32273740999999997e-07
30 1 1.32298535999999997e-07
31 1 1.33684797000000000e-07
32 1 1.33062076999999992e-07
33 1 1.32496976999999995e-07
34 1 1.31841974000000009e-07
35 1 1.30879803000000018e-07
36 1 1.30194062999999998e-07
37 1 1.30554485000000005e-07
38 1 1.31408606000000009e-07
39 1 1.33235272999999999e-07
40 1 1.33849019999999989e-07
41 1 1.33607407000000007e-07
42 1 1.35053090999999971e-07
43 1 1.35727148000000016e-07
44 1 1.36630373000000003e-07
45 1 1.37503538000000003e-07
46 1 1.39205922999999995e-07
47 1 1.39419117000000013e-07
48 1 1.39891834000000000e-07
49 1 1.40269527000000003e-07
50 1 1.39787950999999988e-07
51 1 1.38639002000000009e-07
52 1 1.38867043999999970e-07
53 1 1.38832235000000014e-07
54 1 1.37629165999999961e-07
55 1 1.38118057000000015e-07
56 1 1.38959732000000002e-07
57 1 1.39215280000000003e-07
58 1 1.39773599999999996e-07
59 1 1.40323610000000021e-07
60 1 1.40823603000000007e-07
61 1 1.41620840000000023e-07
62 1 1.42954159999999996e-07
63 1 1.44804162999999960e-07
64 1 1.43998623000000000e-07
65 1 1.43409709999999992e-07
66 1 1.43231939999999989e-07
67 1 1.44706944999999986e-07
68 1 1.45759726000000015e-07
69 1 1.46287489000000019e-07
70 1 1.46929177999999989e-07
71 1 1.47590256000000016e-07
72 1 1.48770828000000040e-07
73 1 1.49845828999999992e-07
74 1 1.49990292000000009e-07
75 1 1.49445820000000036e-07
76 1 1.49451379999999982e-07
77 1 1.49045830000000042e-07
78 1 1.49926375999999976e-07
79 1 1.50648612999999987e-07
80 1 1.51248597999999978e-07
81 1 1.52720833000000011e-07
82 1 1.52845839999999993e-07
83 1 1.54212503000000003e-07
84 1 1.55034722999999960e-07
85 1 1.55745831000000019e-07
86 1 1.56450679999999980e-07
87 1 1.57195840000000002e-07
88 1 1.57559729000000012e-07
89 1 1.57798594999999982e-07
90 1 1.58079166000000015e-07
91 1 1.58743057000000002e-07
92 1 1.59237489999999989e-07
93 1 1.59954165999999997e-07
94 1 1.60568046999999997e-07
95 1 1.60665283000000011e-07
96 1 1.60951384999999964e-07
97 1 1.61554165000000008e-07
98 1 1.62212524000000018e-07
99 1 1.62154178999999998e-07
100 1 1.61848601999999994e-07
101 1 1.61006946999999974e-07
102 1 1.59862499000000016e-07
103 1 1.59465264999999987e-07
104 1 1.58526402000000002e-07
105 1 1.58284721000000011e-07
106 1 1.59320841000000033e-07
107 1 1.59201392999999967e-07
108 1 1.59023619000000003e-07
109 1 1.58359727999999963e-07
110 1 1.57962503000000020e-07
111 1 1.57493057000000041e-07
112 1 1.56359719999999995e-07
113 1 1.56568049999999999e-07
114 1 1.56312494000000049e-07
115 1 1.56573610000000024e-07
116 1 1.56387500999999974e-07
117 1 1.56784735000000002e-07
118 1 1.57631930999999980e-07
119 1 1.59229174000000025e-07
120 1 1.59959726000000049e-07
121 1 1.60634747000000017e-07
122 1 1.61448611999999974e-07
123 1 1.61601390999999981e-07
124 1 1.63237494999999937e-07
125 1 1.64523600000000029e-07
126 1 1.65754169999999971e-07
127 1 1.65823590000000011e-07
128 1 1.65726395000000015e-07
129 1 1.65376395999999992e-07
130 1 1.66045836999999994e-07
131 1 1.67481955999999990e-07
132 1 1.68914413000000016e-07
133 1 1.69590282000000016e-07
134 1 1.71015282000000017e-07
135 1 1.71695824000000001e-07
136 1 1.71729163999999948e-07
137 1 1.71109714999999974e-07
138 1 1.71473618000000034e-07
139 1 1.71093044000000036e-07
140 1 1.71112499000000014e-07
141 1 1.71379184999999972e-07
142 1 1.70487517999999983e-07
143 1 1.70240268999999964e-07
144 1 1.68679141999999957e-07
145 1 1.67815284999999999e-07
146 1 1.66137504999999980e-07
147 1 1.65295809999999999e-07
148 1 1.65281944000000019e-07
149 1 1.64915275999999987e-07
150 1 1.64937495999999989e-07
151 1 1.66301383999999991e-07
152 1 1.65995845999999997e-07
153 1 1.66453685999999989e-07
154 1 1.67284719999999969e-07
155 1 1.67806949999999992e-07
156 1 1.68673610999999958e-07
157 1 1.69481964000000010e-07
158 1 1.70204163000000016e-07
159 1 1.71293050000000020e-07
160 1 1.72512489999999981e-07
161 1 1.72262499999999998e-07
162 1 1.73934729999999976e-07
163 1 1.74490298999999995e-07
164 1 1.75054169000000005e-07
165 1 1.76604195000000004e-07
166 1 1.77634716000000017e-07
167 1 1.78634700000000008e-07
168 1 1.79079169999999993e-07
169 1 1.79251384999999989e-07
170 1 1.79920825999999991e-07
171 1 1.80148619999999979e-07
172 1 1.79943050000000008e-07
173 1 1.80456943999999942e-07
174 1 1.82101383000000037e-07
175 1 1.82576389000000015e-07
176 1 1.83337497999999976e-07
177 1 1.83915272000000023e-07
178 1 1.83943061999999981e-07
179 1 1.84348601999999991e-07
180 1 1.85206946999999992e-07
181 1 1.84643058999999997e-07
182 1 1.84240283999999985e-07
183 1 1.82009735000000044e-07
184 1 1.80968056000000001e-07
185 1 1.80348610000000010e-07
186 1 1.80454160000000034e-07
187 1 1.79387489999999994e-07
188 1 1.78415280000000036e-07
189 1 1.76884726999999948e-07
190 1 1.75562514999999956e-07
191 1 1.74704151000000019e-07
192 1 1.73893029999999984e-07
193 1 1.72809719999999987e-07
194 1 1.70554140000000038e-07
195 1 1.65834710000000009e-07
196 1 1.65426845999999987e-07
197 1 1.64201392999999999e-07
198 1 1.62720832999999995e-07
199 1 1.62151393999999981e-07
200 1 1.60256233000000001e-07
201 1 1.59418068000000014e-07
202 1 1.58998620000000004e-07
203 1 1.59006960000000029e-07
204 1 1.60654162999999986e-07
205 1 1.61895830000000001e-07
206 1 1.61662480000000003e-07
207 1 1.60845832999999986e-07
208 1 1.60112494999999941e-07
209 1 1.58926391999999969e-07
210 1 1.56759729000000005e-07
211 1 1.56237488000000021e-07
212 1 1.54768059999999979e-07
213 1 1.51375083999999978e-07
214 1 1.40200690999999990e-07
215 1 1.40704679000000015e-07
216 1 1.41948547000000020e-07
217 1 1.41480436000000014e-07
218 1 1.42306061000000013e-07
219 1 1.42856531000000013e-07
220 1 1.43775538999999946e-07
221 1 1.44465770999999981e-07
222 1 1.44862003000000028e-07
223 1 1.45714970000000002e-07
224 1 1.46151228000000029e-07
225 1 1.47280369999999998e-07
226 1 1.47666949999999999e-07
227 1 1.58208817999999986e-07
228 1 1.58988360999999980e-07
229 1 1.59800186000000001e-07
230 1 1.60234450999999999e-07
231 1 1.60838584999999979e-07
232 1 1.61594276000000006e-07
233 1 1.63386211000000002e-07
234 1 1.63992366999999985e-07
235 1 1.63993909999999944e-07
236 1 1.64097629999999973e-07
237 1 1.64527988000000012e-07
238 1 1.65308304000000005e-07
239 1 1.65862349999999979e-07
240 1 1.67934227000000003e-07
241 1 1.67364101000000011e-07
242 1 1.67065086000000041e-07
243 1 1.67257350000000052e-07
244 1 1.66336307999999994e-07
245 1 1.64968969999999997e-07
246 1 1.64313300000000000e-07
247 1 1.64009742999999992e-07
248 1 1.62448367999999958e-07
249 1 1.62032928000000009e-07
250 1 1.60944672000000017e-07
251 1 1.59774617999999977e-07
252 1 1.60328178000000015e-07
253 1 1.60388278999999973e-07
254 1 1.59542197999999990e-07
255 1 1.58710918000000018e-07
256 1 1.58068279999999993e-07
257 1 1.56826449999999995e-07
258 1 1.55648346000000029e-07
259 1 1.55437097999999976e-07
260 1 1.55728693000000002e-07
261 1 1.55275897999999968e-07
262 1 1.53848104000000049e-07
263 1 1.53358268999999986e-07
264 1 1.53864059000000009e-07
265 1 1.53823223000000002e-07
266 1 1.55044221999999980e-07
267 1 1.54525995000000025e-07
268 1 1.55109692000000012e-07
269 1 1.55461558999999981e-07
270 1 1.55396709000000002e-07
271 1 1.56039181000000007e-07
272 1 1.57109536999999997e-07
273 1 1.57097587999999983e-07
274 1 1.57950172000000023e-07
275 1 1.58061972000000007e-07
276 1 1.57133589000000054e-07
277 1 1.57066574000000003e-07
278 1 1.44561777000000006e-07
279 1 1.43833598999999991e-07
280 1 1.43280411000000032e-07
281 1 1.42425069999999996e-07
282 1 1.41261549000000016e-07
283 1 1.40432691999999992e-07
284 1 1.52680463999999977e-07
285 1 1.52102060000000000e-07
286 1 1.52582311999999976e-07
287 1 1.52512503000000034e-07
288 1 1.51500168000000027e-07
289 1 1.50730534000000005e-07
290 1 1.50593138000000002e-07
291 1 1.50996455999999971e-07
292 1 1.50333118000000005e-07
293 1 1.50084896000000004e-07
294 1 1.48565167999999955e-07
295 1 1.47910499999999993e-07
296 1 1.47655686999999985e-07
297 1 1.46723126999999994e-07
298 1 1.46039113999999992e-07
299 1 1.45048600000000022e-07
300 1 1.49413241999999941e-07
301 1 1.49608458999999996e-07
302 1 1.50235661999999988e-07
303 1 1.51016819999999991e-07
304 1 1.51220139999999979e-07
305 1 1.51045341999999957e-07
306 1 1.51396694000000017e-07
307 1 1.43969442499999974e-07
308 1 1.39213476499999999e-07
309 1 1.33608508971131722e-07
310 1 1.32937546077088803e-07
311 1 1.32991666499999985e-07
312 1 1.79659355863006505e-07
313 1 1.79920825000000014e-07
314 1 1.80044160141348801e-07
315 1 1.80187492500000037e-07
316 1 1.64227851376186068e-07
317 1 1.63229055499999975e-07
318 1 1.64193365928609202e-07
319 1 1.63910186090559234e-07
320 1 1.64036202290677533e-07
321 1 1.64099560824336659e-07
322 1 1.64131954788256691e-07
323 1 1.64985278246017881e-07
324 1 1.64530680011108397e-07
325 1 1.63246237365501272e-07
326 1 1.63677356552857225e-07
327 1 1.60912241687418726e-07
328 1 1.59453720066353950e-07
329 1 1.58718981641778935e-07
330 1 1.57336788139596350e-07
331 1 1.57597780500000030e-07
332 1 1.61450888469921384e-07
333 1 1.60349846204533549e-07
334 1 1.59793098913665977e-07
335 1 1.64359035397828258e-07
336 1 1.65085310902678312e-07
337 1 1.39850468235993439e-07
338 1 1.64888337179601682e-07
339 1 1.64421945150392341e-07
340 1 1.58117688804729283e-07
341 1 1.57884273499999999e-07
342 1 1.62866965366394825e-07
343 1 1.63444990302999073e-07
344 1 1.63293975411473301e-07
345 1 1.63619399249999997e-07
346 1 1.64700958627034159e-07
347 1 1.63860475223319961e-07
348 1 1.64091937972089865e-07
349 1 1.64531479016752455e-07
350 1 1.65086604881904785e-07
351 1 1.65369754412737409e-07
352 1 1.79483584088591302e-07
353 1 1.79674513110168791e-07
354 1 1.56828890763108452e-07
355 1 1.58988416740019143e-07
356 1 1.58802781000000022e-07
357 1 1.58636568870036629e-07
358 1 1.58543751000000017e-07
359 1 1.58414236000000014e-07
360 1 1.58673266000000019e-07
361 1 1.58495466014467389e-07
362 1 1.58405561499999993e-07
363 1 1.58995833500000008e-07
364 1 1.58831428313488606e-07
365 1 1.58761117750000005e-07
366 1 1.59154628870042914e-07
367 1 1.59061811000000028e-07
368 1 1.58932296000000025e-07
369 1 1.59191326000000030e-07
370 1 1.59424913836948612e-07
371 1 1.59692735966294939e-07
372 1 1.59377986149856952e-07
373 1 1.59931383146855122e-07
374 1 1.59241009712138076e-07
375 1 1.59751366302928433e-07
376 1 1.48238928798529920e-07
377 1 1.47852699532341057e-07
378 1 1.47655921843815532e-07
379 1 1.50880976728111221e-07
380 1 1.56043808051028344e-07
381 1 1.47305685911506532e-07
382 1 1.34330248999999989e-07
383 1 1.57775205764188570e-07
384 1 1.49341015289413968e-07
385 1 1.50016321033677882e-07
386 1 1.38171643556315467e-07
387 1 1.37631649971261918e-07
388 1 1.38210768500000000e-07
389 1 1.56237398000000012e-07
390 1 1.55931912414091930e-07
391 1 1.54701263414356426e-07
392 1 1.53747616985918866e-07
393 1 1.53245022773846515e-07
394 1 1.53529171499999985e-07
395 1 1.51255038084058139e-07
396 1 1.53071571999999965e-07
397 1 1.52223327999999971e-07
398 1 1.54198817670061494e-07
399 1 1.54058780999999963e-07
400 1 1.54881237169261279e-07
401 1 1.54747939499999970e-07
402 1 1.47106619527609560e-07
403 1 1.56322967968362955e-07
404 1 1.56574359000000015e-07
405 1 1.49484778339013694e-07
406 1 1.49325031999999979e-07
407 1 1.64779217769784352e-07
408 1 1.59965238499999982e-07
409 1 1.59908502051872853e-07
410 1 1.53112361427143350e-07
411 1 1.53312485041402046e-07
412 1 1.56517743232937865e-07
413 1 1.45806933931630017e-07
414 1 1.46536234194417948e-07
415 1 1.54201580132141645e-07
416 1 1.52650532286637992e-07
417 1 1.51865392823712234e-07
418 1 1.55969822734284209e-07
419 1 1.56238076064113231e-07
420 1 1.48327999326490120e-07
421 1 1.48386491499999999e-07
422 1 1.46991655925803586e-07
423 1 1.46715799000000014e-07
424 1 1.60563590765616858e-07
425 1 1.59879487262064680e-07
426 1 1.60434722999999995e-07
427 1 1.57556225141693452e-07
428 1 1.58383576640001758e-07
429 1 1.57471351406381603e-07
430 1 1.58044801902712529e-07
431 1 1.78474220720555752e-07
432 1 1.79582893364831129e-07
433 1 1.79203837689927432e-07
434 1 1.64650380841769945e-07
435 1 1.64418281345127939e-07
436 1 1.73098614999999987e-07
437 1 1.80564982466895483e-07
438 1 1.82403749598880258e-07
439 1 1.82370782273898945e-07
440 1 1.51863892362165739e-07
441 1 1.50171830788989666e-07
442 1 1.69000224594054365e-07
443 1 1.69697491080670195e-07
444 1 1.81415177197750635e-07
445 1 1.81279163499999976e-07
446 1 1.81325135474655589e-07
447 1 1.80813191518395861e-07
448 1 1.57640242842203938e-07
449 1 1.61336929659217994e-07
450 1 1.62004199207877350e-07
451 1 1.60742909393852440e-07
452 1 1.63425437369347227e-07
453 1 1.64238849474805034e-07
454 1 1.64653065536584635e-07
455 1 1.63137170010016398e-07
456 1 1.64043294431367215e-07
457 1 1.57545377721413557e-07
458 1 1.57178985048897815e-07
459 1 1.45719666765973340e-07
460 1 1.45236313334379108e-07
461 1 1.54970600372559127e-07
462 1 1.56008529945546045e-07
463 1 1.55975216852249064e-07
464 1 1.56551044625529634e-07
465 1 1.56344842111159254e-07
466 1 1.55780713416170238e-07
467 1 1.60222289047751171e-07
468 1 1.61144189306203179e-07
469 1 1.68194425000000037e-07
470 1 1.66533056202977937e-07
471 1 1.67014567500000010e-07
472 1 1.65854089947095811e-07
473 1 1.64412748081299033e-07
474 1 1.65264090980807030e-07
475 1 1.61787250671386291e-07
476 1 1.62513535471409519e-07
477 1 1.63159739456718596e-07
478 1 1.59057567749654292e-07
479 1 1.59773178880332189e-07
480 1 1.59371296498736619e-07
481 1 1.59815529556957083e-07
482 1 1.58643553685117008e-07
483 1 1.57809105065567276e-07
484 1 1.39659482961580331e-07
485 1 1.45627259711740925e-07
486 1 1.42998601020267385e-07
487 1 1.43280121751245444e-07
488 1 1.44184540147832014e-07
489 1 1.43423239694170546e-07
490 1 1.43867407586152062e-07
491 1 1.43708034954528730e-07
492 1 1.41005866590871578e-07
493 1 1.41801558363274696e-07
494 1 1.42207544535303659e-07
495 1 1.74395706951416987e-07
496 1 1.74302404323488346e-07
497 1 1.75262330744610548e-07
498 1 1.67561679842380409e-07
499 1 1.32957391095626003e-07
500 1 1.32321939500000004e-07
501 1 1.52696715108637487e-07
502 1 1.53173647897876268e-07
503 1 1.32439295445424369e-07
504 1 1.67714383323385349e-07
505 1 1.56221003600639074e-07
506 1 1.50790707713445726e-07
507 1 1.46799030933704475e-07
508 1 1.43053894450628269e-07
509 1 1.70695000050837575e-07
510 1 1.66365925701849238e-07
511 1 1.68952152968698204e-07
512 1 1.69107649200710021e-07
513 1 1.51961235475943577e-07
514 1 1.50913132094970868e-07
515 1 1.55199954056133885e-07
516 1 1.54225046607426650e-07
517 1 1.54308863553157396e-07
518 1 1.54696903393523637e-07
519 1 1.53660333113179117e-07
520 1 1.53667245083708280e-07
521 1 1.67697466232349071e-07
522 1 1.67161218000000047e-07
523 1 1.68682159617057092e-07
524 1 1.33194080975051621e-07
525 1 1.51702865964526084e-07
526 1 1.52351239087715296e-07
527 1 1.53628294597078036e-07
528 1 1.54295140555762905e-07
529 1 1.54562001000000008e-07
530 1 1.54146989759334144e-07
531 1 1.55169827363283842e-07
532 1 1.54433722499999991e-07
533 1 1.54975388027562956e-07
534 1 1.56005843041563497e-07
535 1 1.54509765545007249e-07
536 1 1.55032218119507936e-07
537 1 1.56110023426887099e-07
538 1 1.33907808399921738e-07
539 1 1.33988251285573749e-07
540 1 1.44744869881833896e-07
541 1 1.44318228423876822e-07
542 1 1.57645478717602998e-07
543 1 1.58765377616965561e-07
544 1 1.59241672927545195e-07
545 1 1.59709739105301308e-07
546 1 1.60396189639300764e-07
547 1 1.59729663241649775e-07
548 1 1.58935365951040348e-07
549 1 1.59473123030177651e-07
550 1 1.59972221992851501e-07
551 1 1.58761195895310696e-07
552 1 1.63268692593894476e-07
553 1 1.64770410740462932e-07
554 1 1.66451000578916459e-07
555 1 1.66424638749999996e-07
556 1 1.65675526037032580e-07
557 1 1.65417046464149292e-07
558 1 1.64973893271488923e-07
559 1 1.64767200450026348e-07
560 1 1.63860180538474783e-07
561 1 1.65724148886252548e-07
562 1 1.55934604843789571e-07
563 1 1.55256207796716206e-07
564 1 1.55329266444857455e-07
565 1 1.56999194230875033e-07
566 1 1.57970687466737000e-07
567 1 1.56587949596389730e-07
568 1 1.57276919581818762e-07
569 1 1.57815096930144050e-07
570 1 1.57842201689769560e-07
571 1 1.58561334152842364e-07
572 1 1.45959568403110007e-07
573 1 1.46406695581054782e-07
574 1 1.46439016536723073e-07
575 1 1.46861490695837392e-07
576 1 1.56573060744865065e-07
577 1 1.56721711426331934e-07
578 1 1.58160583669293279e-07
579 1 1.58835362949436156e-07
580 1 1.58775032616379683e-07
581 1 1.58611900829044190e-07
582 1 1.80642065385977305e-07
583 1 1.81606618764129264e-07
584 1 1.81282960140663251e-07
585 1 1.80378658889508559e-07
586 1 1.79840009102286250e-07
587 1 1.79724097237996071e-07
588 1 1.80690198675979847e-07
589 1 1.80228922962275803e-07
590 1 1.81156692753074686e-07
591 1 1.80008176154701472e-07
592 1 1.81556652196895744e-07
593 1 1.69867847418621891e-07
594 1 1.70536092672777255e-07
595 1 1.70222517465295629e-07
596 1 1.78279739675780738e-07
597 1 1.78908660126764928e-07
598 1 1.78854845806468794e-07
599 1 1.46344920761667940e-07
600 1 1.45648084976809878e-07
601 1 1.49183862374429932e-07
602 1 1.48894639353551206e-07
603 1 1.49572229262905707e-07
604 1 1.50116702922968814e-07
605 1 1.52615494897468848e-07
606 1 1.51839466612979649e-07
607 1 1.45924116760015639e-07
608 1 1.53369622499999957e-07
609 1 1.52904597252649307e-07
610 1 1.51597764415254722e-07
611 1 1.52248966435279814e-07
612 1 1.53554988239342590e-07
613 1 1.36667214416662095e-07
614 1 1.35321346385471283e-07
615 1 1.34645389759617169e-07
616 1 1.34728415010840285e-07
617 1 1.35778124312387432e-07
618 1 1.34603992460495976e-07
619 1 1.34380893931399943e-07
620 1 1.35110323745795362e-07
621 1 1.37495733098518257e-07
622 1 1.36161793771068824e-07
623 1 1.35479843180133606e-07
624 1 1.33796916214969580e-07
625 1 1.35539742056786967e-07
626 1 1.36504888786414407e-07
627 1 1.36150275000000003e-07
628 1 1.37396071483007476e-07
629 1 1.50418528092484007e-07
630 1 1.49893080315566760e-07
631 1 1.50546520199640700e-07
632 1 1.47966489036503219e-07
633 1 1.48552410229812556e-07
634 1 1.49114337482537437e-07
635 1 1.65884679259578944e-07
636 1 1.65315649602869659e-07
637 1 1.65917825497828624e-07
638 1 1.65181022394507900e-07
639 1 1.38810588840178465e-07
640 1 1.39179882330534095e-07
641 1 1.65138884999999987e-07
642 1 1.64871635274420962e-07
643 1 1.59889587542657238e-07
644 1 1.60200819218253998e-07
645 1 1.41317087749497969e-07
646 1 1.40841359951856731e-07
647 1 1.41326613000000005e-07
648 1 1.40587371739187769e-07
649 1 1.40080680500000001e-07
650 1 1.63586488845885102e-07
651 1 1.62763733955748195e-07
652 1 1.62971629638251518e-07
653 1 1.62408336513325215e-07
654 1 1.60312932757984485e-07
655 1 1.60403158083220459e-07
656 1 1.61028949639034060e-07
657 1 1.61274996499999981e-07
658 1 1.60651353592459588e-07
659 1 1.59492071066195336e-07
660 1 1.59830561499999995e-07
661 1 1.60012263318025658e-07
662 1 1.59168834194453189e-07
663 1 1.59519443499999955e-07
664 1 1.59762703104066131e-07
665 1 1.61327368530560723e-07
666 1 1.31865506998960303e-07
667 1 1.60940519187185904e-07
668 1 1.60759611888517640e-07
669 1 1.40415920244395481e-07
670 1 1.39924573795933213e-07
671 1 1.41101353958002043e-07
672 1 1.40412712034173692e-07
673 1 1.48549458707985325e-07
674 1 1.50029389191763635e-07
675 1 1.49510850499999982e-07
676 1 1.48378051895307082e-07
677 1 1.41360744367224135e-07
678 1 1.40573606500000001e-07
679 1 1.40837823541444900e-07
680 1 1.40453487297585319e-07
681 1 1.40231795683044462e-07
682 1 1.41533564954745662e-07
683 1 1.40885509323047170e-07
684 1 1.41550994277278644e-07
685 1 1.39624774426210920e-07
686 1 1.39366056192129939e-07
687 1 1.39920448681255876e-07
688 1 1.39022693419973188e-07
689 1 1.39393954509874159e-07
690 1 1.38538894500000008e-07
691 1 1.38524933799264683e-07
692 1 1.38230700499999988e-07
693 1 1.42468615622081520e-07
694 1 1.32344327219974091e-07
695 1 1.30536932999999995e-07
696 1 1.31247165461589467e-07
697 1 1.30986870008721036e-07
698 1 1.60242362249999977e-07
699 1 1.61824566006481915e-07
700 1 1.60808333999999987e-07
701 1 1.61244924503236569e-07
702 1 1.61620939488445181e-07
703 1 1.60616664999999991e-07
704 1 1.63332317400753609e-07
705 1 1.63450676236552415e-07
706 1 1.64663512887047870e-07
707 1 1.64309684668383070e-07
708 1 1.63970125195980139e-07
709 1 1.64138034947220138e-07
710 1 1.64235491805984906e-07
711 1 1.65234143485485191e-07
712 1 1.64953644585266827e-07
713 1 1.64510623648723627e-07
714 1 1.64168863717140046e-07
715 1 1.63829011983307384e-07
716 1 1.62735205175884258e-07
717 1 1.63002050079735647e-07
718 1 1.62283376075537749e-07
719 1 1.61801220217803972e-07
720 1 1.61255382044314229e-07
721 1 1.61674050097286940e-07
722 1 1.60936242555731021e-07
723 1 1.62057975958395886e-07
724 1 1.62410522163768074e-07
725 1 1.63191727092443494e-07
726 1 1.63226289014903808e-07
727 1 1.64046798742675598e-07
728 1 1.63785427365044937e-07
729 1 1.63730891295680753e-07
730 1 1.64450593139965657e-07
731 1 1.64490846467878512e-07
732 1 1.65551395500000003e-07
733 1 1.65043980171294585e-07
734 1 1.64438441344518334e-07
735 1 1.62426470499913723e-07
736 1 1.61998478402697627e-07
737 1 1.62828311925066225e-07
738 1 1.62720414256104154e-07
739 1 1.62925707655734667e-07
740 1 1.63218841047375565e-07
741 1 1.63543907239909197e-07
742 1 1.64248960047701896e-07
743 1 1.63637683473451409e-07
744 1 1.64996866384332831e-07
745 1 1.64456070784281057e-07
746 1 1.63565855448440048e-07
747 1 1.64143542137870412e-07
748 1 1.62962077490665767e-07
749 1 1.63466899510471309e-07
750 1 1.62640851701161270e-07
751 1 1.63751314682529245e-07
752 1 1.64821994817309367e-07
753 1 1.64138572906547409e-07
754 1 1.63961845360909691e-07
755 1 1.64753080195692158e-07
756 1 1.66872630013267205e-07
757 1 1.65835551146840880e-07
758 1 1.65328772982069829e-07
759 1 1.65942033965050556e-07
760 1 1.66104572107572787e-07
761 1 1.65479013928888454e-07
762 1 1.64912211727692767e-07
763 1 1.67032827551305706e-07
764 1 1.66706245798097683e-07
765 1 1.67445175947006685e-07
766 1 1.67941769934656830e-07
767 1 1.68714017707775377e-07
768 1 1.68226082507812895e-07
769 1 1.67722514154097405e-07
770 1 1.69459705499999974e-07
771 1 1.69270836182966152e-07
772 1 1.67370467883521323e-07
773 1 1.68247213499999991e-07
774 1 1.66597502329346779e-07
775 1 1.65275714915182464e-07
776 1 1.65770097154244451e-07
777 1 1.66544883196494424e-07
778 1 1.65300157258047335e-07
779 1 1.66694012954817348e-07
780 1 1.66058843906944360e-07
781 1 1.66718767311444089e-07
782 1 1.67868880251061115e-07
783 1 1.67230137376537608e-07
784 1 1.67390408363535599e-07
785 1 1.67515134314592362e-07
786 1 1.65706879326863980e-07
787 1 1.65691873420513598e-07
788 1 1.64971770264873862e-07
789 1 1.65070887176941103e-07
790 1 1.64715916040540549e-07
791 1 1.62142497922765554e-07
792 1 1.60753606768555515e-07
793 1 1.60098968404315057e-07
794 1 1.60940501603345514e-07
795 1 1.60655557440801518e-07
796 1 1.61548655468407558e-07
797 1 1.60075360723570475e-07
798 1 1.61070114668176238e-07
799 1 1.60692773015345503e-07
800 1 1.61411089255214965e-07
801 1 1.62006090336318995e-07
802 1 1.63002132341690466e-07
803 1 1.63612575102002345e-07
804 1 1.63006816951139033e-07
805 1 1.63716754052055459e-07
806 1 1.64296139441606668e-07
807 1 1.62012647204652292e-07
808 1 1.62471275132736380e-07
809 1 1.61556938376885836e-07
810 1 1.61301459962188394e-07
811 1 1.61999869865361360e-07
812 1 1.60498545447002504e-07
813 1 1.60609227246225022e-07
814 1 1.60333806842056863e-07
815 1 1.59770328524969771e-07
816 1 1.58962641343735592e-07
817 1 1.58584973649307897e-07
818 1 1.57938880500000012e-07
819 1 1.58420186033836159e-07
820 1 1.59201057541670548e-07
821 1 1.58411111500000009e-07
822 1 1.58577084250000019e-07
823 1 1.58245138749999999e-07
824 1 1.62521498784143937e-07
825 1 1.62782689076161384e-07
826 1 1.62490243500000004e-07
827 1 1.62938227250000003e-07
828 1 1.62666376812441812e-07
829 1 1.61892341735180709e-07
830 1 1.61851476601507203e-07
831 1 1.62595526799299210e-07
832 1 1.62136337328873295e-07
833 1 1.61153827870106491e-07
834 1 1.62385168050980010e-07
835 1 1.62683795970948944e-07
836 1 1.63168148781335196e-07
837 1 1.62763769489033860e-07
838 1 1.62771062722630233e-07
839 1 1.61926425456385372e-07
840 1 1.63436313690259251e-07
841 1 1.64206587867641755e-07
842 1 1.64784494496362121e-07
843 1 1.65046389489372163e-07
844 1 1.64586550787838869e-07
845 1 1.65920862231397010e-07
846 1 1.66761761526752506e-07
847 1 1.66433200737113564e-07
848 1 1.66377667167097226e-07
849 1 1.67001852572904863e-07
850 1 1.65796696684811257e-07
851 1 1.67065894229066701e-07
852 1 1.67545834999999967e-07
853 1 1.67476813388602750e-07
854 1 1.66261183816323567e-07
855 1 1.66451970818788539e-07
856 1 1.67214593500000013e-07
857 1 1.66804345350193884e-07
858 1 1.65715399683744070e-07
859 1 1.65336243032790207e-07
860 1 1.61801431362049869e-07
861 1 1.62096115091464488e-07
862 1 1.61286336670690250e-07
863 1 1.59753691454319151e-07
864 1 1.60163206672824616e-07
865 1 1.60709100563234802e-07
866 1 1.60108264652254702e-07
867 1 1.60764042583738172e-07
868 1 1.61374950014547266e-07
869 1 1.61078657687535673e-07
870 1 1.61695185463421072e-07
871 1 1.60421191046203062e-07
872 1 1.59909903251510631e-07
873 1 1.60556771882854595e-07
874 1 1.61216536207017252e-07
875 1 1.60782461612366302e-07
876 1 1.60315905923220825e-07
877 1 1.60334245070913202e-07
878 1 1.59700172735403133e-07
879 1 1.60949978258760249e-07
880 1 1.59703704259112828e-07
881 1 1.60359644999999997e-07
882 1 1.58104983257070440e-07
883 1 1.58949084087832912e-07
884 1 1.58911058870104892e-07
885 1 1.58524785488818544e-07
886 1 1.57619362778808380e-07
887 1 1.57732814959096055e-07
888 1 1.58242783170554693e-07
889 1 1.58935281952671456e-07
890 1 1.58231851338117949e-07
891 1 1.58370674623433472e-07
892 1 1.57717737829456996e-07
893 1 1.57039488375312865e-07
894 1 1.59067264837553731e-07
895 1 1.59260105208990419e-07
896 1 1.58746786416105892e-07
897 1 1.56889450298253920e-07
898 1 1.56792511647541540e-07
899 1 1.56367856467285255e-07
900 1 1.57094282697541380e-07
901 1 1.57189253023142803e-07
902 1 1.58530766538273189e-07
903 1 1.59196319622076889e-07
904 1 1.57691311926793509e-07
905 1 1.56899229613185379e-07
906 1 1.57135455207399716e-07
907 1 1.56422553731410426e-07
908 1 1.56267333932975050e-07
909 1 1.58233033982556815e-07
910 1 1.61655945249614456e-07
911 1 1.61984089116484535e-07
912 1 1.61415370039718737e-07
913 1 1.62056782437811647e-07
914 1 1.62439116269876595e-07
915 1 1.62938459333085116e-07
916 1 1.62883040597385527e-07
917 1 1.62271876322124180e-07
918 1 1.62785739371903493e-07
919 1 1.63322088384606599e-07
920 1 1.63904971490647261e-07
921 1 1.63333687125608767e-07
922 1 1.64537418913957252e-07
923 1 1.60486687655522083e-07
924 1 1.61404136996401832e-07
925 1 1.61799050353644462e-07
926 1 1.63599929997076115e-07
927 1 1.63089936106334100e-07
928 1 1.63997705435542091e-07
929 1 1.61311362234189255e-07
930 1 1.63948587459074962e-07
931 1 1.41147772564182872e-07
932 1 1.42039708220615600e-07
933 1 1.41843309499999993e-07
934 1 1.41471216381043726e-07
935 1 1.42113522346256915e-07
936 1 1.42919084952417264e-07
937 1 1.43407240885968543e-07
938 1 1.42637572546808305e-07
939 1 1.43100938002021383e-07
940 1 1.42852740500000027e-07
941 1 1.42328695310057399e-07
942 1 1.42903892532921789e-07
943 1 1.41551958098047163e-07
944 1 1.42831885742319000e-07
945 1 1.43840577125244381e-07
946 1 1.43280021135587972e-07
947 1 1.43834790706212075e-07
948 1 1.42687277543603072e-07
949 1 1.43421318383666366e-07
950 1 1.42517114514155347e-07
951 1 1.59376446146342161e-07
952 1 1.59056674707560107e-07
953 1 1.58468107589647062e-07
954 1 1.58003538868395682e-07
955 1 1.57427861825918795e-07
956 1 1.58019423555175284e-07
957 1 1.58430552500000016e-07
958 1 1.59575172776479457e-07
959 1 1.60602858725296565e-07
960 1 1.60080551578876188e-07
961 1 1.60577471071651295e-07
962 1 1.60806021942501965e-07
963 1 1.61041679499999996e-07
964 1 1.59454483824749573e-07
965 1 1.60104370575209415e-07
966 1 1.61079398060084094e-07
967 1 1.60466850313288571e-07
968 1 1.59976674933684298e-07
969 1 1.61240674073224320e-07
970 1 1.60674460541301515e-07
971 1 1.62148425686160199e-07
972 1 1.62419442999999959e-07
973 1 1.61554883021093971e-07
974 1 1.61731213662718855e-07
975 1 1.61102472846466256e-07
976 1 1.60594347661863819e-07
977 1 1.60799447444314007e-07
978 1 1.59108033895785528e-07
979 1 1.58691673499999983e-07
980 1 1.59322618041928204e-07
981 1 1.58161115500000005e-07
982 1 1.58600433803319443e-07
983 1 1.66625228653937233e-07
984 1 1.66414673440547980e-07
985 1 1.49608815105186342e-07
986 1 1.49757974337712984e-07
987 1 1.49159577631199788e-07
988 1 1.48871249952347823e-07
989 1 1.50007603900271580e-07
990 1 1.49602760874418286e-07
991 1 1.50597826958057143e-07
992 1 1.50287010691443699e-07
993 1 1.51060946805233322e-07
994 1 1.51878833222098692e-07
995 1 1.51534506769001064e-07
996 1 1.50452253068673455e-07
997 1 1.50902734101349556e-07
998 1 1.52239592290325407e-07
999 1 1.49994275787149999e-07
1000 1 1.48876851262188043e-07
1001 1 1.48902431039592802e-07
1002 1 1.49433864051937066e-07
1003 1 1.49458951461235614e-07
1004 1 1.48242132679535452e-07
1005 1 1.48737031107575352e-07
1006 1 1.49457121031610213e-07
1007 1 1.48867110561438432e-07
1008 1 1.48810590433996061e-07
1009 1 1.47700475111951162e-07
1010 1 1.48319601547326514e-07
1011 1 1.50091636173677139e-07
1012 1 1.45486927984999696e-07
1013 1 1.45346402102516860e-07
1014 1 1.45270851521668157e-07
1015 1 1.43879161499999965e-07
1016 1 1.44621808449571632e-07
1017 1 1.44341662249999949e-07
1018 1 1.46070314343402494e-07
1019 1 1.44033964243044993e-07
1020 1 1.44782720812040478e-07
1021 1 1.44153573329202049e-07
1022 1 1.46078246185407239e-07
1023 1 1.47562997366328248e-07
1024 1 1.46853950123291446e-07
1025 1 1.48239277060317038e-07
1026 1 1.47872607653077113e-07
1027 1 1.48162473650175286e-07
1028 1 1.48874329733237236e-07
1029 1 1.48613192984902294e-07
1030 1 1.48305405866583887e-07
1031 1 1.46939533707958202e-07
1032 1 1.47476724305254576e-07
1033 1 1.47784757401394714e-07
1034 1 1.47251012269158923e-07
1035 1 1.45870338838919381e-07
1036 1 1.46547735650199022e-07
1037 1 1.46615235150972769e-07
1038 1 1.46390604980741939e-07
1039 1 1.45791206995793470e-07
1040 1 1.44592043840442792e-07
1041 1 1.45242039341935932e-07
1042 1 1.44451544896195549e-07
1043 1 1.45233682198829549e-07
1044 1 1.46034821713399242e-07
1045 1 1.44596590231517480e-07
1046 1 1.43482033268468841e-07
1047 1 1.43906893153666681e-07
1048 1 1.44098119759716535e-07
1049 1 1.43947164094357642e-07
1050 1 1.43192022828049354e-07
1051 1 1.43483341875668439e-07
1052 1 1.42286205323019624e-07
1053 1 1.41882625755181347e-07
1054 1 1.41867608617018415e-07
1055 1 1.41653321701483310e-07
1056 1 1.41057584190418662e-07
1057 1 1.42550834814005039e-07
1058 1 1.41050674915716909e-07
1059 1 1.40927393502225500e-07
1060 1 1.42525846652622010e-07
1061 1 1.42265151323900795e-07
1062 1 1.42247557721962523e-07
1063 1 1.42701165024957950e-07
1064 1 1.42963933042685409e-07
1065 1 1.43927313126531991e-07
1066 1 1.41643134644532201e-07
1067 1 1.42621149977117304e-07
1068 1 1.43208479102725123e-07
1069 1 1.42287500000000023e-07
1070 1 1.41794239451921405e-07
1071 1 1.44803221071476833e-07
1072 1 1.46130189317985720e-07
1073 1 1.46821688937313685e-07
1074 1 1.47288359123409730e-07
1075 1 1.47191825053412957e-07
1076 1 1.46806867847112508e-07
1077 1 1.47324305244747865e-07
1078 1 1.46759073288320563e-07
1079 1 1.47372099803552039e-07
1080 1 1.45777955889268517e-07
1081 1 1.45298318870287255e-07
1082 1 1.44863734078922329e-07
1083 1 1.44647350767215534e-07
1084 1 1.44260130491911146e-07
1085 1 1.44771269472139595e-07
1086 1 1.44960939499534889e-07
1087 1 1.46526179758814822e-07
1088 1 1.46619251990015081e-07
1089 1 1.49035590812641987e-07
1090 1 1.33120736493468756e-07
1091 1 1.33565985296386349e-07
1092 1 1.33435469000000011e-07
1093 1 1.34053601878116250e-07
1094 1 1.35027024895799059e-07
1095 1 1.34323285099807883e-07
1096 1 1.34500241039063354e-07
1097 1 1.34815410129880523e-07
1098 1 1.35484626967859066e-07
1099 1 1.35898401817045508e-07
1100 1 1.36079215994070346e-07
1101 1 1.34968155038666790e-07
1102 1 1.35185750413707114e-07
1103 1 1.34909607429746995e-07
1104 1 1.35830515243720821e-07
1105 1 1.36178760499999996e-07
1106 1 1.36155260167294573e-07
1107 1 1.36535819935462424e-07
1108 1 1.37555824573095360e-07
1109 1 1.36905130112053607e-07
1110 1 1.36869565793254975e-07
1111 1 1.37756343672339184e-07
1112 1 1.37128540492125939e-07
1113 1 1.37460362308878695e-07
1114 1 1.38160288385027058e-07
1115 1 1.38840701924007350e-07
1116 1 1.38899428883804046e-07
1117 1 1.37764746098104516e-07
1118 1 1.37444205531501500e-07
1119 1 1.36986781670041026e-07
1120 1 1.38177326742195016e-07
1121 1 1.37495264071606821e-07
1122 1 1.36579063645703471e-07
1123 1 1.38386492899865109e-07
1124 1 1.36373988779557995e-07
1125 1 1.35747152466140839e-07
1126 1 1.34480873209116858e-07
1127 1 1.34941389656843556e-07
1128 1 1.34363103594212565e-07
1129 1 1.34601579580649699e-07
1130 1 1.35463793237697580e-07
1131 1 1.35009738399137031e-07
1132 1 1.35794378425552264e-07
1133 1 1.36225092048332924e-07
1134 1 1.35671049285144050e-07
1135 1 1.36198105465823675e-07
1136 1 1.38674536072981153e-07
1137 1 1.37498027594326488e-07
1138 1 1.36789163423371661e-07
1139 1 1.37189744069062061e-07
1140 1 1.37104890987538859e-07
1141 1 1.36885734244030338e-07
1142 1 1.46578704232522922e-07
1143 1 1.44188987693243105e-07
1144 1 1.45078951694546588e-07
1145 1 1.44477948643571585e-07
1146 1 1.44568526594818700e-07
1147 1 1.45152699971849945e-07
1148 1 1.43721451364438164e-07
1149 1 1.43801005940282404e-07
1150 1 1.42970919834528982e-07
1151 1 1.42764432230444524e-07
1152 1 1.43440430073214845e-07
1153 1 1.42847128518798730e-07
1154 1 1.43665449032374523e-07
1155 1 1.43780890255965475e-07
1156 1 1.44427398357743718e-07
1157 1 1.45143843300379011e-07
1158 1 1.44575585932215517e-07
1159 1 1.45690274000000017e-07
1160 1 1.44245650558920336e-07
1161 1 1.44599995499999995e-07
1162 1 1.45582478865137641e-07
1163 1 1.44439190008371347e-07
1164 1 1.45003831644238478e-07
1165 1 1.45432496868258853e-07
1166 1 1.51872293996635988e-07
1167 1 1.51382509701332552e-07
1168 1 1.52059150188658947e-07
1169 1 1.52723604132221318e-07
1170 1 1.53535700899360184e-07
1171 1 1.54732285222886357e-07
1172 1 1.55248212565319387e-07
1173 1 1.54374232113961054e-07
1174 1 1.55910146813080503e-07
1175 1 1.55754932526130411e-07
1176 1 1.56798191580372209e-07
1177 1 1.54683548365782376e-07
1178 1 1.54096851699039955e-07
1179 1 1.52573851597489460e-07
1180 1 1.51913557584732440e-07
1181 1 1.79408091604983356e-07
1182 1 1.78003176568427968e-07
1183 1 1.78576598093031504e-07
1184 1 1.77088277215585346e-07
1185 1 1.77705965907557444e-07
1186 1 1.77707901505708399e-07
1187 1 1.77162718149340715e-07
1188 1 1.78305581092393425e-07
1189 1 1.76113556170031503e-07
1190 1 1.76706693843056465e-07
1191 1 1.76346807230940832e-07
1192 1 1.76473442782148222e-07
1193 1 1.75434800290747710e-07
1194 1 1.77352791662821753e-07
1195 1 1.77055493155524124e-07
1196 1 1.76348678852489252e-07
1197 1 1.77767656942385541e-07
1198 1 1.75813411652235377e-07
1199 1 1.75829182000000004e-07
1200 1 1.75307098350970915e-07
1201 1 1.78159157298478411e-07
1202 1 1.77076467892026428e-07
1203 1 1.77119455500000024e-07
1204 1 1.70933351499999991e-07
1205 1 1.69569323230978190e-07
1206 1 1.68752355854855050e-07
1207 1 1.68074128396494549e-07
1208 1 1.67778617493206715e-07
1209 1 1.68356449896013597e-07
1210 1 1.68508663688307667e-07
1211 1 1.70154765900246917e-07
1212 1 1.81969862309729148e-07
1213 1 1.80552412338512668e-07
1214 1 1.80141037619388449e-07
1215 1 1.80601460685604208e-07
1216 1 1.80924712774452866e-07
1217 1 1.79780275504214101e-07
1218 1 1.59308832413985778e-07
1219 1 1.58375464063755908e-07
1220 1 1.59174451826398895e-07
1221 1 1.58565154269665717e-07
1222 1 1.59242897256987482e-07
1223 1 1.58375663692058671e-07
1224 1 1.57684184333763384e-07
1225 1 1.57920531696176797e-07
1226 1 1.59154962665701212e-07
1227 1 1.58549003441494652e-07
1228 1 1.58921604643855834e-07
1229 1 1.60266481361212262e-07
1230 1 1.60732111489349110e-07
1231 1 1.60086712741838798e-07
1232 1 1.60937438086259434e-07
1233 1 1.60202711203781972e-07
1234 1 1.59469708020401673e-07
1235 1 1.57244014183020632e-07
1236 1 1.58167801902169535e-07
1237 1 1.58408182366798853e-07
1238 1 1.57680955212277802e-07
1239 1 1.56766572038388591e-07
1240 1 1.57976288887153533e-07
1241 1 1.57776425519285542e-07
1242 1 1.58271707583952612e-07
1243 1 1.57727073393298990e-07
1244 1 1.56865446487286909e-07
1245 1 1.58641185886342483e-07
1246 1 1.58968256560385510e-07
1247 1 1.55946237176310648e-07
1248 1 1.62968799625184371e-07
1249 1 1.59386800373929774e-07
1250 1 1.59126335708946158e-07
1251 1 1.58176743933170978e-07
1252 1 1.58323385429734623e-07
1253 1 1.56758626999999978e-07
1254 1 1.57127584433518003e-07
1255 1 1.56823259999999991e-07
1256 1 1.44182598964396706e-07
1257 1 1.44744796388760771e-07
1258 1 1.45489318215834638e-07
1259 1 1.45537189378297632e-07
1260 1 1.45906293406635385e-07
1261 1 1.44922074203949952e-07
1262 1 1.46140301729551030e-07
1263 1 1.47302098930288917e-07
1264 1 1.46714467878385077e-07
1265 1 1.46738765517074541e-07
1266 1 1.47277801291649746e-07
1267 1 1.47942315692748827e-07
1268 1 1.47893733229053007e-07
1269 1 1.48798775879474851e-07
1270 1 1.47481660711120589e-07
1271 1 1.46655439239087718e-07
1272 1 1.45496141294756722e-07
1273 1 1.45288486500000015e-07
1274 1 1.46155066758099651e-07
1275 1 1.44184980314219839e-07
1276 1 1.33406620178732312e-07
1277 1 1.52540509260909582e-07
1278 1 1.53188850839300246e-07
1279 1 1.52635093579482248e-07
1280 1 1.52410779856641973e-07
1281 1 1.51885010647333465e-07
1282 1 1.50860996999317482e-07
1283 1 1.51537317780977984e-07
1284 1 1.52111463245606908e-07
1285 1 1.51766173886637961e-07
1286 1 1.50491177555133774e-07
1287 1 1.51084799684156867e-07
1288 1 1.51105758574883987e-07
1289 1 1.53624536956756284e-07
1290 1 1.53554430058047960e-07
1291 1 1.54137866849299386e-07
1292 1 1.54118819171377328e-07
1293 1 1.53532998258768322e-07
1294 1 1.52751209898935347e-07
1295 1 1.52749639089936769e-07
1296 1 1.52759223120393385e-07
1297 1 1.53008397732877602e-07
1298 1 1.54221824348223251e-07
1299 1 1.53795815064842437e-07
1300 1 1.53240747913554439e-07
1301 1 1.53224555916861944e-07
1302 1 1.52798040836220997e-07
1303 1 1.32572487947475805e-07
1304 1 1.55394308764780861e-07
1305 1 1.54820829386157128e-07
1306 1 1.55012730503006611e-07
1307 1 1.55306293210824335e-07
1308 1 1.70016199898772432e-07
1309 1 1.70538259114353764e-07
1310 1 1.70619886917261625e-07
1311 1 1.69934572095898690e-07
1312 1 1.69184447584138585e-07
1313 1 1.70185504759294906e-07
1314 1 1.69535218596353506e-07
1315 1 1.69911304759052677e-07
1316 1 1.70507981530717246e-07
1317 1 1.70302782000000016e-07
1318 1 1.71128072612576522e-07
1319 1 1.69345660503651293e-07
1320 1 1.65721444274860816e-07
1321 1 1.66869202999999979e-07
1322 1 1.68303918999999967e-07
1323 1 1.68865758048119115e-07
1324 1 1.69077787499999997e-07
1325 1 1.68240280499999988e-07
1326 1 1.73714399946563561e-07
1327 1 1.73579500574081539e-07
1328 1 1.74595820847641427e-07
1329 1 1.74892612932237366e-07
1330 1 1.75691580149186293e-07
1331 1 1.73608375630246126e-07
1332 1 1.74265448143958507e-07
1333 1 1.73803727171935143e-07
1334 1 1.72414773653491738e-07
1335 1 1.73351374999999985e-07
1336 1 1.73098079262477327e-07
1337 1 1.72313446718994142e-07
1338 1 1.72547858363483363e-07
1339 1 1.72924910655131664e-07
1340 1 1.71681930000000026e-07
1341 1 1.72179977603489978e-07
1342 1 1.72245825000000020e-07
1343 1 1.69772868896077523e-07
1344 1 1.71066441385569281e-07
1345 1 1.71727054519876686e-07
1346 1 1.70693614614737744e-07
1347 1 1.71099077141971540e-07
1348 1 1.71511880052719459e-07
1349 1 1.70466035025156197e-07
1350 1 1.70051539615686215e-07
1351 1 1.70437629929270567e-07
1352 1 1.70996960521319761e-07
1353 1 1.70823557606243823e-07
1354 1 1.70987010321274413e-07
1355 1 1.71606037071263909e-07
1356 1 1.70204530856244163e-07
1357 1 1.70071014909098637e-07
1358 1 1.68970713748309989e-07
1359 1 1.69623889746299321e-07
1360 1 1.69337338493154161e-07
1361 1 1.69430781678741136e-07
1362 1 1.70051476218058678e-07
1363 1 1.68338419731256162e-07
1364 1 1.68967461654090368e-07
1365 1 1.67479443501574192e-07
1366 1 1.68095204833512339e-07
1367 1 1.68851576803882077e-07
1368 1 1.71268039425751931e-07
1369 1 1.72193312609396510e-07
1370 1 1.72271356888352315e-07
1371 1 1.73130406695834555e-07
1372 1 1.70649371955948948e-07
1373 1 1.70748606500000018e-07
1374 1 1.72020486860381092e-07
1375 1 1.71746140482084103e-07
1376 1 1.71259463546033354e-07
1377 1 1.73111032719349670e-07
1378 1 1.73857002216379569e-07
1379 1 1.74103664932916987e-07
1380 1 1.73434175925265905e-07
1381 1 1.72820840332138253e-07
1382 1 1.74921770316020789e-07
1383 1 1.75198370954585853e-07
1384 1 1.41038614310229707e-07
1385 1 1.40334466138637285e-07
1386 1 1.40301468879327174e-07
1387 1 1.41585869222940352e-07
1388 1 1.40880233356750292e-07
1389 1 1.41340048492132134e-07
1390 1 1.41919235373600075e-07
1391 1 1.41497873442231882e-07
1392 1 1.41478680218689319e-07
1393 1 1.40057910878685391e-07
1394 1 1.40835131192948231e-07
1395 1 1.40431728812085945e-07
1396 1 1.39423189833459259e-07
1397 1 1.40056786512686927e-07
1398 1 1.40476578263496835e-07
1399 1 1.40851463438514099e-07
1400 1 1.41454592039330857e-07
1401 1 1.40705926948435694e-07
1402 1 1.42582391238870929e-07
1403 1 1.42565051808756064e-07
1404 1 1.42088961282421074e-07
1405 1 1.43058070120418279e-07
1406 1 1.43320259999999979e-07
1407 1 1.43311573417369760e-07
1408 1 1.42584133046504525e-07
1409 1 1.42121982327293975e-07
1410 1 1.41947003714828579e-07
1411 1 1.42124449456891819e-07
1412 1 1.39919452690859443e-07
1413 1 1.40538450223871075e-07
1414 1 1.40109977152327174e-07
1415 1 1.39528176597617406e-07
1416 1 1.45233335500000014e-07
1417 1 1.54733697708485330e-07
1418 1 1.46381120500000006e-07
1419 1 1.62121509275388880e-07
1420 1 1.61255570918576473e-07
1421 1 1.60875223001452084e-07
1422 1 1.61600071608079987e-07
1423 1 1.61470632000263420e-07
1424 1 1.62223967045224383e-07
1425 1 1.50626240999999989e-07
1426 1 1.50755587133385336e-07
1427 1 1.50148350784371489e-07
1428 1 1.52599924986466130e-07
1429 1 1.52751148013075221e-07
1430 1 1.52420423285760524e-07
1431 1 1.52437471468597597e-07
1432 1 1.53128183022037860e-07
1433 1 1.54011403850209739e-07
1434 1 1.53435302428904008e-07
1435 1 1.54204662740753118e-07
1436 1 1.53358129060791509e-07
1437 1 1.53967830933731413e-07
1438 1 1.53442622177060867e-07
1439 1 1.55006210498574815e-07
1440 1 1.51984339097323429e-07
1441 1 1.51858658561675952e-07
1442 1 1.78940603834372640e-07
1443 1 1.56463884999999997e-07
1444 1 1.56978960791284209e-07
1445 1 1.56926388500000018e-07
1446 1 1.57236008895671798e-07
1447 1 1.57209722750000043e-07
1448 1 1.57364532947855123e-07
1449 1 1.57351389875000042e-07
1450 1 1.57428794973930891e-07
1451 1 1.57422223437500041e-07
1452 1 1.57457640218750041e-07
1453 1 1.57386806656250042e-07
1454 1 1.57487514091458460e-07
1455 1 1.57439473270591669e-07
1456 1 1.57819286205258182e-07
1457 1 1.57727780000000017e-07
1458 1 1.57653407915946419e-07
1459 1 1.57610418500000029e-07
1460 1 1.57569067531310156e-07
1461 1 1.57287127848985605e-07
1462 1 1.57280556312500042e-07
1463 1 1.57315973093750042e-07
1464 1 1.57245139531250042e-07
1465 1 1.57239596623075094e-07
1466 1 1.57308194190844421e-07
1467 1 1.57068055625000044e-07
1468 1 1.57150368141925994e-07
1469 1 1.57138889187500043e-07
1470 1 1.57447550410418436e-07
1471 1 1.57359141347548638e-07
1472 1 1.57314241416650692e-07
1473 1 1.57050669959701893e-07
1474 1 1.57595484569240086e-07
1475 1 1.57175328088688216e-07
1476 1 1.57453805861776385e-07
1477 1 1.57596633898457400e-07
1478 1 1.57207805688488518e-07
1479 1 1.57726111500284126e-07
1480 1 1.57950832127386167e-07
1481 1 1.57771179448408738e-07
1482 1 1.58120232125667327e-07
1483 1 1.56669340395634638e-07
1484 1 1.56643054249999993e-07
1485 1 1.56797864447838292e-07
1486 1 1.56784721374999993e-07
1487 1 1.56855554937499992e-07
1488 1 1.56713887812499993e-07
1489 1 1.56915302683773815e-07
1490 1 1.56821870098012887e-07
1491 1 1.56411802499999983e-07
1492 1 1.56514530197812406e-07
1493 1 1.56501387124999994e-07
1494 1 1.56572220687499994e-07
1495 1 1.56430553562499995e-07
1496 1 1.56385761249999989e-07
1497 1 1.56906531334505311e-07
1498 1 1.56653884016251621e-07
1499 1 1.57208333000000004e-07
1500 1 1.57008585537018389e-07
1501 1 1.38778955615043167e-07
1502 1 1.38699133249999997e-07
1503 1 1.65445048232315514e-07
1504 1 1.65435247558412871e-07
1505 1 1.65619440000000004e-07
1506 1 1.33646652985554929e-07
1507 1 1.83266338514600127e-07
1508 1 1.65278468000000010e-07
1509 1 1.65219022036408063e-07
1510 1 1.54774912819307130e-07
1511 1 1.55334651920998867e-07
1512 1 1.55427334236956699e-07
1513 1 1.55929541828667178e-07
1514 1 1.56730691813180607e-07
1515 1 1.57222064825805796e-07
1516 1 1.57133228950683457e-07
1517 1 1.56618687534030223e-07
1518 1 1.57843060499999974e-07
1519 1 1.58154226633889971e-07
1520 1 1.57301394749999990e-07
1521 1 1.55502773999999987e-07
1522 1 1.55947944114162594e-07
1523 1 1.55216894656252453e-07
1524 1 1.54198293898796579e-07
1525 1 1.57633714288368782e-07
1526 1 1.57653880712921008e-07
1527 1 1.58384726249999985e-07
1528 1 1.58668460721680756e-07
1529 1 1.58656814866598723e-07
1530 1 1.55954154716763036e-07
1531 1 1.56141860243886929e-07
1532 1 1.55125274241493615e-07
1533 1 1.56593740399907749e-07
1534 1 1.54863180004232034e-07
1535 1 1.55223312704315922e-07
1536 1 1.54383057081555676e-07
1537 1 1.55661250616240703e-07
1538 1 1.56297887273789161e-07
1539 1 1.53587309844762654e-07
1540 1 1.53919815999999959e-07
1541 1 1.54343937999999982e-07
1542 1 1.54524778699812326e-07
1543 1 1.54828674400806566e-07
1544 1 1.63363470597993762e-07
1545 1 1.62649183881079534e-07
1546 1 1.63083252817166214e-07
1547 1 1.62929401661929343e-07
1548 1 1.62345594297292947e-07
1549 1 1.63745859661480064e-07
1550 1 1.63960680833730611e-07
1551 1 1.64622442482939850e-07
1552 1 1.65268623913117165e-07
1553 1 1.66177439523706757e-07
1554 1 1.64197401611186758e-07
1555 1 1.64688702182947765e-07
1556 1 1.63739982942711668e-07
1557 1 1.63461112999999997e-07
1558 1 1.63618807964776528e-07
1559 1 1.62934973500362192e-07
1560 1 1.62459996425281292e-07
1561 1 1.66509671323878662e-07
1562 1 1.66843386642242011e-07
1563 1 1.67528503332837773e-07
1564 1 1.66829256749022123e-07
1565 1 1.66964747609262377e-07
1566 1 1.67246529095549632e-07
1567 1 1.67940764457218167e-07
1568 1 1.68780525386533512e-07
1569 1 1.68208944103955986e-07
1570 1 1.69374282500000037e-07
1571 1 1.68671698102046565e-07
1572 1 1.68784353750000050e-07
1573 1 1.69249754205698607e-07
1574 1 1.69443955747585152e-07
1575 1 1.70015338693954995e-07
1576 1 1.69964211250000024e-07
1577 1 1.70661272802709860e-07
1578 1 1.71118035000000032e-07
1579 1 1.69422578564003001e-07
1580 1 1.68142073234984116e-07
1581 1 1.68752926979952056e-07
1582 1 1.69923824782151736e-07
1583 1 1.69310627140984396e-07
1584 1 1.68685831451967359e-07
1585 1 1.67984013433075450e-07
1586 1 1.66288872273635926e-07
1587 1 1.67465530684990847e-07
1588 1 1.67676563185132606e-07
1589 1 1.66796829000000023e-07
1590 1 1.67105850394411177e-07
1591 1 1.65599024001562942e-07
1592 1 1.63295954806935493e-07
1593 1 1.64610487152485607e-07
1594 1 1.39574494753921496e-07
1595 1 1.43178408593621956e-07
1596 1 1.40857891843842735e-07
1597 1 1.39742941915558237e-07
1598 1 1.40267186308774037e-07
1599 1 1.39602671779419661e-07
1600 1 1.40329839642190852e-07
1601 1 1.39400422906637583e-07
1602 1 1.40067006029324838e-07
1603 1 1.40347218500000004e-07
1604 1 1.39271436047024354e-07
1605 1 1.38972080318530400e-07
1606 1 1.38245968140140882e-07
1607 1 1.38779845147500540e-07
1608 1 1.38064406435550167e-07
1609 1 1.38961406852131172e-07
1610 1 1.39520251264702222e-07
1611 1 1.38296874928372704e-07
1612 1 1.37483477347646883e-07
1613 1 1.37462727740509800e-07
1614 1 1.37135187839529539e-07
1615 1 1.40042054928102538e-07
1616 1 1.38927894738180476e-07
1617 1 1.39422094223206059e-07
1618 1 1.38766788856841655e-07
1619 1 1.38115947633233080e-07
1620 1 1.38390883280894109e-07
1621 1 1.39002209780488272e-07
1622 1 1.37664398423439098e-07
1623 1 1.36791475903064573e-07
1624 1 1.38902609132149654e-07
1625 1 1.39668059499999981e-07
1626 1 1.37921589311758259e-07
1627 1 1.38137123417300507e-07
1628 1 1.39456616389765558e-07
1629 1 1.39973841299473487e-07
1630 1 1.38900557496179845e-07
1631 1 1.41623309924017793e-07
1632 1 1.72904394335331500e-07
1633 1 1.73759283305807993e-07
1634 1 1.71902769999999987e-07
1635 1 1.67812629660788586e-07
1636 1 1.68277890118958648e-07
1637 1 1.68418024704925728e-07
1638 1 1.67561832450204260e-07
1639 1 1.67209284000000049e-07
1640 1 1.71660028968175611e-07
1641 1 1.76223620999999952e-07
1642 1 1.76428459784608201e-07
1643 1 1.77650003499999992e-07
1644 1 1.77814190704727793e-07
1645 1 1.74138802083514264e-07
1646 1 1.73168969832466019e-07
1647 1 1.55799169171062230e-07
1648 1 1.55576784676649598e-07
1649 1 1.56576963141506765e-07
1650 1 1.56580465839041095e-07
1651 1 1.55718825083053400e-07
1652 1 1.54734592185079549e-07
1653 1 1.54127248778400925e-07
1654 1 1.54410990574100650e-07
1655 1 1.52157740875413754e-07
1656 1 1.53119813500468220e-07
1657 1 1.52320356450861607e-07
1658 1 1.51698304374036624e-07
1659 1 1.52118491491798017e-07
1660 1 1.51460131312752205e-07
1661 1 1.50793316844968040e-07
1662 1 1.52196400418554201e-07
1663 1 1.51612202338160712e-07
1664 1 1.51984715499999994e-07
1665 1 1.51867645762187328e-07
1666 1 1.51616656749999999e-07
1667 1 1.52634065266596592e-07
1668 1 1.49729872994236808e-07
1669 1 1.49097539046955772e-07
1670 1 1.49551896684011803e-07
1671 1 1.50373829826395342e-07
1672 1 1.49308328500000030e-07
1673 1 1.50359681401281712e-07
1674 1 1.50179947433524782e-07
1675 1 1.49485218386045974e-07
1676 1 1.49577078750000011e-07
1677 1 1.51043964166057224e-07
1678 1 1.50872654471441749e-07
1679 1 1.51507960160220461e-07
1680 1 1.51533833693561445e-07
1681 1 1.50117622750697667e-07
1682 1 1.45045410421448857e-07
1683 1 1.48964984430106740e-07
1684 1 1.49484708127448698e-07
1685 1 1.49354279483288950e-07
1686 1 1.48791162521984270e-07
1687 1 1.50042601311697852e-07
1688 1 1.49583287764737270e-07
1689 1 1.47931647559257203e-07
1690 1 1.48505638738684811e-07
1691 1 1.56248001990654730e-07
1692 1 1.58848241227143950e-07
1693 1 1.60280217765832845e-07
1694 1 1.60306673600943604e-07
1695 1 1.60492599883639654e-07
1696 1 1.61036955624713967e-07
1697 1 1.61522529464147634e-07
1698 1 1.63239128340444999e-07
1699 1 1.63812912478268747e-07
1700 1 1.59134930716855007e-07
1701 1 1.57280864960687087e-07
1702 1 1.56471636083162942e-07
1703 1 1.61203813500000004e-07
1704 1 1.61442356541309579e-07
1705 1 1.60820407049321591e-07
1706 1 1.60730023249999989e-07
1707 1 1.59739174278790592e-07
1708 1 1.59826800711368982e-07
1709 1 1.75994564858776307e-07
1710 1 1.74864525610203669e-07
1711 1 1.52006335500000044e-07
1712 1 1.51694436725614958e-07
1713 1 1.51244553741933333e-07
1714 1 1.51039785632251222e-07
1715 1 1.50603900127523878e-07
1716 1 1.51825258763245250e-07
1717 1 1.51205145610677092e-07
1718 1 1.53292479756888668e-07
1719 1 1.53341646426004749e-07
1720 1 1.53995473301168486e-07
1721 1 1.53898269375328944e-07
1722 1 1.53806845668780597e-07
1723 1 1.53083880280791380e-07
1724 1 1.51555485495743551e-07
1725 1 1.56722307895833739e-07
1726 1 1.57295476653620557e-07
1727 1 1.53999926613818703e-07
1728 1 1.51438035243241317e-07
1729 1 1.36455174869206347e-07
1730 1 1.36250908313237738e-07
1731 1 1.36129816413730182e-07
1732 1 1.35272263846877116e-07
1733 1 1.34303626608983816e-07
1734 1 1.35624345523216386e-07
1735 1 1.38238277644378510e-07
1736 1 1.38464003545758230e-07
1737 1 1.37896278128199663e-07
1738 1 1.38562845990528920e-07
1739 1 1.38354730499999999e-07
1740 1 1.38127212685675267e-07
1741 1 1.37929134250000001e-07
1742 1 1.38780326749999997e-07
1743 1 1.39110867099962515e-07
1744 1 1.45467662593106612e-07
1745 1 1.44218602640562408e-07
1746 1 1.43592678196854934e-07
1747 1 1.47551917099935369e-07
1748 1 1.50963170512454385e-07
1749 1 1.60349481452463083e-07
1750 1 1.61857860640307609e-07
1751 1 1.62010416999999984e-07
1752 1 1.62607420664295286e-07
1753 1 1.63052764442625261e-07
1754 1 1.61153542367657266e-07
1755 1 1.61525001499999965e-07
1756 1 1.41893248500000013e-07
1757 1 1.41037566997428289e-07
1758 1 1.40847120500000004e-07
1759 1 1.41892042661971499e-07
1760 1 1.64334354415321358e-07
1761 1 1.59806104235694146e-07
1762 1 1.59515542605022601e-07
1763 1 1.59387841067033873e-07
1764 1 1.59652579937416354e-07
1765 1 1.60227162893567324e-07
1766 1 1.58117292807485786e-07
1767 1 1.58748980363539283e-07
1768 1 1.65928387705063981e-07
1769 1 1.61347340624178669e-07
1770 1 1.62680003671507374e-07
1771 1 1.61990254595229062e-07
1772 1 1.59008022635224408e-07
1773 1 1.62613419030488805e-07
1774 1 1.63100343031498824e-07
1775 1 1.63729505062372676e-07
1776 1 1.63700231314789135e-07
1777 1 1.62611151076456123e-07
1778 1 1.61566178577099868e-07
1779 1 1.61992831643479928e-07
1780 1 1.62359363394564727e-07
1781 1 1.63017521615883553e-07
1782 1 1.62248256864539941e-07
1783 1 1.61632869554710260e-07
1784 1 1.62450792655010144e-07
1785 1 1.59595827999999980e-07
1786 1 1.66624235349013020e-07
1787 1 1.66075362775027629e-07
1788 1 1.66979089484837908e-07
1789 1 1.66763896499999992e-07
1790 1 1.66106557441904130e-07
1791 1 1.66681147460126124e-07
1792 1 1.67173464100299421e-07
1793 1 1.68128041150663787e-07
1794 1 1.67621750044814591e-07
1795 1 1.68198184500000016e-07
1796 1 1.66244796521074438e-07
1797 1 1.66984152032805537e-07
1798 1 1.68306507940467310e-07
1799 1 1.67917819159590841e-07
1800 1 1.68428344431085568e-07
1801 1 1.68692057357042394e-07
1802 1 1.67121610871494379e-07
1803 1 1.65475559043877320e-07
1804 1 1.66077479143531588e-07
1805 1 1.64880371239595499e-07
1806 1 1.66313745799087194e-07
1807 1 1.64278916601827654e-07
1808 1 1.62433088980325504e-07
1809 1 1.62016830956651219e-07
1810 1 1.62576822883288608e-07
1811 1 1.63286073826026554e-07
1812 1 1.65407908897654659e-07
1813 1 1.61209001264940658e-07
1814 1 1.47726882033111873e-07
1815 1 1.47409736774305497e-07
1816 1 1.48325056231007872e-07
1817 1 1.61252774999999999e-07
1818 1 1.61644850331204865e-07
1819 1 1.62247753917801771e-07
1820 1 1.65345743223506264e-07
1821 1 1.65652638999999995e-07
1822 1 1.37063674079526862e-07
1823 1 1.36446987415886517e-07
1824 1 1.32827101435347590e-07
1825 1 1.35966478217120513e-07
1826 1 1.35277485372764681e-07
1827 1 1.53454016748742077e-07
1828 1 1.50201551995970744e-07
1829 1 1.50422215500000009e-07
1830 1 1.50654217423663288e-07
1831 1 1.81488895500000036e-07
1832 1 1.83125009500000028e-07
1833 1 1.82049828973904510e-07
1834 1 1.81429270744566130e-07
1835 1 1.81722524112850980e-07
1836 1 1.82567372250000050e-07
1837 1 1.82954746528854197e-07
1838 1 1.82096487439137149e-07
1839 1 1.81954137410923565e-07
1840 1 1.82506008557925735e-07
1841 1 1.82557180525482064e-07
1842 1 1.83372820199374978e-07
1843 1 1.83962265834584949e-07
1844 1 1.84441671500000004e-07
1845 1 1.83882547541713599e-07
1846 1 1.83045059258217317e-07
1847 1 1.83682646750000007e-07
1848 1 1.82806522833746988e-07
1849 1 1.83298049317370299e-07
1850 1 1.83376279928422087e-07
1851 1 1.83287391747133624e-07
1852 1 1.84145831999999986e-07
1853 1 1.82011000565037892e-07
1854 1 1.82752735909186121e-07
1855 1 1.82885128291783766e-07
1856 1 1.83854767919374064e-07
1857 1 1.84925002999999981e-07
1858 1 1.84777774499999991e-07
1859 1 1.84463598408224962e-07
1860 1 1.57637907834384924e-07
1861 1 1.59802774030790725e-07
1862 1 1.33324401336921842e-07
1863 1 1.55737258405439808e-07
1864 1 1.54690498845785477e-07
1865 1 1.50259429724500225e-07
1866 1 1.43316034999999979e-07
1867 1 1.64814119499999993e-07
1868 1 1.81690273249999993e-07
1869 1 1.51132740999999968e-07
1870 1 1.54623612999999968e-07
1871 1 1.54319989173812069e-07
1872 1 1.60261106499999997e-07
1873 1 1.60955869505680023e-07
1874 1 1.60821457769455606e-07
1875 1 1.77095105509724809e-07
1876 1 1.67604496250000023e-07
1877 1 1.39753737634061727e-07
1878 1 1.40963271301982327e-07
1879 1 1.42408190577025884e-07
1880 1 1.48213944364473580e-07
1881 1 1.45350868313499877e-07
1882 1 1.57447364999999994e-07
1883 1 1.41998009500000007e-07
1884 1 1.48180542000000028e-07
1885 1 1.63880547499999983e-07
1886 1 1.66976394999999976e-07
1 2 4.19393044000000029e-07
2 2 4.20054168999999935e-07
3 2 4.20218047999999894e-07
4 2 4.20701369999999942e-07
5 2 4.21056937999999996e-07
6 2 4.21731948999999981e-07
7 2 4.21965293999999988e-07
8 2 4.22512511999999996e-07
9 2 4.23601378999999981e-07
10 2 4.24451369999999959e-07
11 2 4.25309715000000013e-07
12 2 4.26029167000000006e-07
13 2 4.27068061999999983e-07
14 2 4.28162497999999999e-07
15 2 4.28937491999999983e-07
16 2 4.28563118000000002e-07
17 2 4.28234824999999997e-07
18 2 4.27963029000000005e-07
19 2 4.27346343999999998e-07
20 2 4.26696815999999914e-07
21 2 4.26438293000000001e-07
22 2 4.25922279000000000e-07
23 2 4.25715103000000000e-07
24 2 4.25884895000000021e-07
25 2 4.25286903000000007e-07
26 2 4.24633063999999956e-07
27 2 4.24011917000000068e-07
28 2 4.23579674000000020e-07
29 2 4.23203087000000006e-07
30 2 4.22881469999999865e-07
31 2 4.21810341000000062e-07
32 2 4.21392287999999978e-07
33 2 4.21284026999999968e-07
34 2 4.21598624999999952e-07
35 2 4.21788596999999960e-07
36 2 4.20759201000000030e-07
37 2 4.20173568999999960e-07
38 2 4.20163344999999983e-07
39 2 4.19461517000000022e-07
40 2 4.19051781000000039e-07
41 2 4.18703689999999949e-07
42 2 4.18025359999999995e-07
43 2 4.17552718999999993e-07
44 2 4.18124161000000100e-07
45 2 4.17615585000000029e-07
46 2 4.17182235999999886e-07
47 2 4.16889496000000100e-07
48 2 4.16548156999999940e-07
49 2 4.15267525000000007e-07
50 2 4.14634704999999916e-07
51 2 4.14109306000000070e-07
52 2 4.13864479000000023e-07
53 2 4.12919349999999939e-07
54 2 4.12226371999999948e-07
55 2 4.11870842000000032e-07
56 2 4.10904160000000009e-07
57 2 4.10248599999999909e-07
58 2 4.09773599999999979e-07
59 2 4.08996769999999953e-07
60 2 4.08284721000000079e-07
61 2 4.08156930000000057e-07
62 2 4.08359719999999975e-07
63 2 4.07090262999999976e-07
64 2 4.06381949999999890e-07
65 2 4.06270829999999991e-07
66 2 4.05701369999999980e-07
67 2 4.06207198999999986e-07
68 2 4.06168059999999994e-07
69 2 4.06484717999999986e-07
70 2 4.06340293999999979e-07
71 2 4.06773605000000089e-07
72 2 4.05884705000000000e-07
73 2 4.04243049999999919e-07
74 2 4.03584709000000000e-07
75 2 4.03359717999999963e-07
76 2 4.02801398999999867e-07
77 2 4.02531928999999896e-07
78 2 4.02176398999999979e-07
79 2 4.01645850999999984e-07
80 2 4.01751404000000071e-07
81 2 4.00737495000000046e-07
82 2 4.00340270999999974e-07
83 2 3.99920844999999992e-07
84 2 4.00637511999999941e-07
85 2 4.00781937000000005e-07
86 2 4.00412479999999967e-07
87 2 3.99770849999999946e-07
88 2 3.99242133999999979e-07
89 2 3.98943061999999988e-07
90 2 3.97379150000000016e-07
91 2 3.95531960000000011e-07
92 2 3.95276374999999956e-07
93 2 3.94437485000000013e-07
94 2 3.92715263000000007e-07
95 2 3.91359711000000095e-07
96 2 3.90498008999999934e-07
97 2 3.89523620999999963e-07
98 2 3.89115294999999959e-07
99 2 3.88114738000000034e-07
100 2 3.87495842000000000e-07
101 2 3.87115287999999995e-07
102 2 3.87234725999999998e-07
103 2 3.86909713999999983e-07
104 2 3.86626396000000018e-07
105 2 3.86259727000000087e-07
106 2 3.85406951999999963e-07
107 2 3.85078545000000020e-07
108 2 3.84390259000000003e-07
109 2 3.83640289000000002e-07
110 2 3.82809715000000102e-07
111 2 3.82570838999999990e-07
112 2 3.82326393000000054e-07
113 2 3.81354179000000029e-07
114 2 3.81031952000000005e-07
115 2 3.80412482999999957e-07
116 2 3.80015297000000024e-07
117 2 3.79537505999999975e-07
118 2 3.79165268000000013e-07
119 2 3.79295844999999978e-07
120 2 3.79156951999999970e-07
121 2 3.79240265000000061e-07
122 2 3.80326384999999981e-07
123 2 3.81273613000000002e-07
124 2 3.82940291999999961e-07
125 2 3.83343049999999990e-07
126 2 3.84345820000000054e-07
127 2 3.84706190000000058e-07
128 2 3.85681953000000093e-07
129 2 3.87223625000000016e-07
130 2 3.88129157999999985e-07
131 2 3.88840293999999988e-07
132 2 3.89281960000000071e-07
133 2 3.89395827999999986e-07
134 2 3.89054184000000043e-07
135 2 3.89526405000000003e-07
136 2 3.90334739999999911e-07
137 2 3.90959740000000011e-07
138 2 3.92062491999999912e-07
139 2 3.92465285999999966e-07
140 2 3.93173598999999999e-07
141 2 3.93781928999999979e-07
142 2 3.94418067999999934e-07
143 2 3.94828376999999985e-07
144 2 3.95379180999999978e-07
145 2 3.96145820999999992e-07
146 2 3.96223601999999974e-07
147 2 3.96609729999999976e-07
148 2 3.97248610999999978e-07
149 2 3.97504158000000001e-07
150 2 3.98129157999999995e-07
151 2 3.99662513999999981e-07
152 2 4.00365295000000010e-07
153 2 4.01195830999999984e-07
154 2 4.01990279999999972e-07
155 2 4.02970848000000073e-07
156 2 4.03990706999999977e-07
157 2 4.04698600999999919e-07
158 2 4.05059738000000005e-07
159 2 4.05176389999999960e-07
160 2 4.04498600000000006e-07
161 2 4.04048609999999956e-07
162 2 4.03329160000000075e-07
163 2 4.03279151999999990e-07
164 2 4.02948607999999972e-07
165 2 4.03043059999999971e-07
166 2 4.02947234999999967e-07
167 2 4.02820819999999960e-07
168 2 4.02515259999999939e-07
169 2 4.01834717000000004e-07
170 2 4.01340293999999921e-07
171 2 4.00373609999999997e-07
172 2 3.99951399999999974e-07
173 2 3.99295844999999998e-07
174 2 3.98379173000000068e-07
175 2 3.98362502999999949e-07
176 2 3.97951392999999958e-07
177 2 3.98185195999999932e-07
178 2 3.99120827000000025e-07
179 2 4.00234717999999993e-07
180 2 4.01079177999999972e-07
181 2 4.01926383999999959e-07
182 2 4.02943038999999887e-07
183 2 4.04693069000000021e-07
184 2 4.05156937000000069e-07
185 2 4.05681950000000050e-07
186 2 4.05968060000000032e-07
187 2 4.06856960000000015e-07
188 2 4.06904179999999993e-07
189 2 4.07656936999999939e-07
190 2 4.07987517999999986e-07
191 2 4.08334731999999964e-07
192 2 4.08929940000000043e-07
193 2 4.09709739999999991e-07
194 2 4.10779149999999964e-07
195 2 4.12076379999999966e-07
196 2 4.12295836999999993e-07
197 2 4.12826384999999987e-07
198 2 4.13248596000000067e-07
199 2 4.13562508000000050e-07
200 2 4.14256935000000004e-07
201 2 4.14737511000000044e-07
202 2 4.15365299999999990e-07
203 2 4.16159709999999943e-07
204 2 4.16931953000000006e-07
205 2 4.17745819999999970e-07
206 2 4.18873600000000027e-07
207 2 4.19409713999999884e-07
208 2 4.19506949999999976e-07
209 2 4.19293059999999974e-07
210 2 4.19148598000000041e-07
211 2 4.19276390000000014e-07
212 2 4.19051399999999980e-07
213 2 4.19262504999999938e-07
214 2 4.16833495999999931e-07
215 2 4.17382125999999979e-07
216 2 4.17489967000000001e-07
217 2 4.18282776000000022e-07
218 2 4.18780632000000011e-07
219 2 4.19097709999999992e-07
220 2 4.18809089999999905e-07
221 2 4.18387946999999994e-07
222 2 4.17606239000000007e-07
223 2 4.18221359000000002e-07
224 2 4.18901633999999971e-07
225 2 4.20042229999999984e-07
226 2 4.20190581999999947e-07
227 2 4.00028762999999976e-07
228 2 3.99826888999999992e-07
229 2 3.99834061000000068e-07
230 2 3.99246483000000085e-07
231 2 3.98976212000000066e-07
232 2 3.99210701000000041e-07
233 2 3.99371796000000065e-07
234 2 4.00199661000000038e-07
235 2 4.00566520000000022e-07
236 2 4.01219559999999928e-07
237 2 4.01357993999999965e-07
238 2 4.01190909999999974e-07
239 2 4.01340218000000016e-07
240 2 4.04629477999999950e-07
241 2 4.04689177999999989e-07
242 2 4.05511817999999960e-07
243 2 4.07148249999999994e-07
244 2 4.07545547000000013e-07
245 2 4.07592739999999999e-07
246 2 4.07057459999999991e-07
247 2 4.07083930999999982e-07
248 2 4.08390235999999975e-07
249 2 4.09185142999999984e-07
250 2 4.09212493999999938e-07
251 2 4.09594382999999968e-07
252 2 4.09993667999999999e-07
253 2 4.10398635999999998e-07
254 2 4.11117896999999986e-07
255 2 4.11409035000000102e-07
256 2 4.11121029999999969e-07
257 2 4.10871999999999975e-07
258 2 4.10903892999999994e-07
259 2 4.10568428000000071e-07
260 2 4.09998627000000041e-07
261 2 4.09085731999999995e-07
262 2 4.08773155000000036e-07
263 2 4.08358611999999980e-07
264 2 4.07925186000000034e-07
265 2 4.07251395999999979e-07
266 2 4.06639365999999917e-07
267 2 4.06118431000000012e-07
268 2 4.05867385999999962e-07
269 2 4.05326537999999979e-07
270 2 4.04890518000000047e-07
271 2 4.04357757999999969e-07
272 2 4.03782958999999967e-07
273 2 4.03375701999999976e-07
274 2 4.02879639000000032e-07
275 2 4.02524109000000010e-07
276 2 4.01794509999999949e-07
277 2 4.01187362999999971e-07
278 2 4.14288216000000026e-07
279 2 4.14442482000000001e-07
280 2 4.14544258000000045e-07
281 2 4.14976501000000040e-07
282 2 4.15083542000000072e-07
283 2 4.13937721000000004e-07
284 2 4.11076316999999927e-07
285 2 4.11686744999999948e-07
286 2 4.11983795000000069e-07
287 2 4.12714348000000044e-07
288 2 4.12814293000000064e-07
289 2 4.13334388999999890e-07
290 2 4.13731117000000015e-07
291 2 4.14347534000000003e-07
292 2 4.14536705000000017e-07
293 2 4.14873656999999986e-07
294 2 4.14256820999999961e-07
295 2 4.14535408000000076e-07
296 2 4.14183539999999997e-07
297 2 4.14076233000000006e-07
298 2 4.13649482999999979e-07
299 2 4.13851126000000025e-07
300 2 4.15245934000000037e-07
301 2 4.16470107999999991e-07
302 2 4.16228293999999968e-07
303 2 4.16728099999999990e-07
304 2 4.17212104999999975e-07
305 2 4.18477096999999871e-07
306 2 4.18802489999999998e-07
307 2 4.05954284499999983e-07
308 2 4.14372005499999993e-07
309 2 4.23144226394005574e-07
310 2 4.23092498640301766e-07
311 2 4.22345905499999990e-07
312 2 4.06098749977136498e-07
313 2 4.06412509999999997e-07
314 2 4.05956790270778824e-07
315 2 4.06190285000000041e-07
316 2 4.07831335378892546e-07
317 2 4.07737083499999979e-07
318 2 4.07435872456710697e-07
319 2 4.04188499025358184e-07
320 2 4.05633593644142957e-07
321 2 4.06360159561736145e-07
322 2 4.06731638331652841e-07
323 2 4.06470074388130789e-07
324 2 4.06509716596566556e-07
325 2 4.06621723505390123e-07
326 2 4.06771280540090991e-07
327 2 4.03615748415801742e-07
328 2 4.03157101558338480e-07
329 2 4.02926055638475918e-07
330 2 4.02491410929045356e-07
331 2 4.02159309499999979e-07
332 2 3.84446286114796104e-07
333 2 3.84846756557004518e-07
334 2 3.85049256352688185e-07
335 2 3.84801443611089853e-07
336 2 3.84661537277198594e-07
337 2 4.17427638003224292e-07
338 2 4.00379325316217175e-07
339 2 4.00381286949691165e-07
340 2 3.99442845243943933e-07
341 2 3.99635448499999951e-07
342 2 4.00387827156718942e-07
343 2 4.00385395997949944e-07
344 2 4.07180271237727209e-07
345 2 4.07410507249999980e-07
346 2 4.05836011151350092e-07
347 2 4.02694973884162638e-07
348 2 4.01975411886174955e-07
349 2 4.10143045483111091e-07
350 2 4.11174754910756965e-07
351 2 4.11700992398059228e-07
352 2 4.05029776392007168e-07
353 2 4.05547319758838703e-07
354 2 3.80884854652900287e-07
355 2 3.86058886570386203e-07
356 2 3.85833339500000052e-07
357 2 3.86159306785235523e-07
358 2 3.86046533250000096e-07
359 2 3.86153130125000065e-07
360 2 3.85939936375000074e-07
361 2 3.86383803114462289e-07
362 2 3.86443061500000053e-07
363 2 3.86768055000000000e-07
364 2 3.86464229408818621e-07
365 2 3.86697225499999983e-07
366 2 3.85732919285185089e-07
367 2 3.85620145750000007e-07
368 2 3.85726742625000029e-07
369 2 3.85513548874999985e-07
370 2 3.85665378974827615e-07
371 2 3.85407353135207569e-07
372 2 3.86052169914239108e-07
373 2 3.85923068963042119e-07
374 2 3.86438991973744263e-07
375 2 3.86402049671767736e-07
376 2 4.18122246082135868e-07
377 2 4.19128693650896584e-07
378 2 4.19641462732690885e-07
379 2 4.15200200082433878e-07
380 2 4.05017106477590998e-07
381 2 4.20554117814695819e-07
382 2 4.18364524999999946e-07
383 2 4.03559624355313388e-07
384 2 4.13075322512736745e-07
385 2 4.13309196371014865e-07
386 2 4.27648489439274641e-07
387 2 4.28032824046124678e-07
388 2 4.28750304999999966e-07
389 2 4.10887946500000011e-07
390 2 4.10491080695513753e-07
391 2 4.05216785436529926e-07
392 2 4.00842343542857126e-07
393 2 4.00684176376095830e-07
394 2 4.00130557999999983e-07
395 2 4.13738192478796389e-07
396 2 4.19156952499999959e-07
397 2 4.19209728749999949e-07
398 2 4.11582439849233847e-07
399 2 4.10822372499999999e-07
400 2 4.11152708716755735e-07
401 2 4.10695400250000061e-07
402 2 4.14849357599281352e-07
403 2 4.03602233296165111e-07
404 2 4.04070358499999968e-07
405 2 4.14171664396208088e-07
406 2 4.14565238999999974e-07
407 2 3.96918109074023062e-07
408 2 4.10758266500000018e-07
409 2 4.10262895568037224e-07
410 2 4.01983331735313712e-07
411 2 4.01347416125919310e-07
412 2 4.10356146127357517e-07
413 2 4.20371670137769665e-07
414 2 4.20627809947313093e-07
415 2 4.15674959022427637e-07
416 2 4.16326520572285528e-07
417 2 4.16656340627014959e-07
418 2 4.17051532382096077e-07
419 2 4.18147789481315298e-07
420 2 4.19902635538070504e-07
421 2 4.20459708999999892e-07
422 2 4.19092405629033525e-07
423 2 4.19471932000000004e-07
424 2 3.86433992070126786e-07
425 2 3.86808704373914507e-07
426 2 3.87175006999999997e-07
427 2 3.80186620335869408e-07
428 2 3.81401486541943013e-07
429 2 3.81549068111324408e-07
430 2 3.82067256419742073e-07
431 2 4.05696134607179149e-07
432 2 4.03724024796501824e-07
433 2 4.03172647404753367e-07
434 2 3.99248506107868334e-07
435 2 3.99791124607997347e-07
436 2 4.03688885000000016e-07
437 2 3.99909737076997238e-07
438 2 4.00219104265884435e-07
439 2 3.99279711514757880e-07
440 2 4.17945632307562313e-07
441 2 4.17367769295969185e-07
442 2 3.93801486263781078e-07
443 2 3.94221653604874016e-07
444 2 3.99443659011708080e-07
445 2 3.98837509000000007e-07
446 2 4.01010829752316934e-07
447 2 4.00551319748653820e-07
448 2 4.10034697183703888e-07
449 2 4.11943183333388383e-07
450 2 4.12622055852738444e-07
451 2 4.11244425497014243e-07
452 2 3.94063391931233622e-07
453 2 3.95426008298665841e-07
454 2 3.96119897142534337e-07
455 2 3.97608148227781430e-07
456 2 3.97848053671429263e-07
457 2 4.05236543114640299e-07
458 2 4.04554268797195358e-07
459 2 4.15088200485637157e-07
460 2 4.14549850105532525e-07
461 2 4.09970186179630063e-07
462 2 4.13321276044369724e-07
463 2 4.12090714841223124e-07
464 2 4.11586275115675195e-07
465 2 4.06286071271569465e-07
466 2 4.05919058226266689e-07
467 2 3.85362657102871312e-07
468 2 3.85316878657580174e-07
469 2 4.11427764999999965e-07
470 2 4.10735766348425922e-07
471 2 4.11752072499999965e-07
472 2 4.11101093755588716e-07
473 2 4.11876628153881061e-07
474 2 4.02457593439001211e-07
475 2 4.07027734318596883e-07
476 2 4.07371468811068199e-07
477 2 4.01280963419023391e-07
478 2 3.98491009367389871e-07
479 2 3.96918709651971383e-07
480 2 3.96141262182157689e-07
481 2 3.84244323902654282e-07
482 2 4.01306340097575704e-07
483 2 4.01412676681149233e-07
484 2 4.13695567035967419e-07
485 2 4.06986968229845917e-07
486 2 4.11458249925262377e-07
487 2 4.12988413128055984e-07
488 2 4.13378404000638180e-07
489 2 4.13766308983718951e-07
490 2 4.16180516142918259e-07
491 2 4.15314270393925757e-07
492 2 4.21674228704548057e-07
493 2 4.20292851094162832e-07
494 2 4.19588030172733802e-07
495 2 4.05339351309517833e-07
496 2 4.04302796204330517e-07
497 2 4.03949928608951909e-07
498 2 4.03823867483347040e-07
499 2 4.20409743755059898e-07
500 2 4.19812430999999976e-07
501 2 4.09636994130220472e-07
502 2 4.09073437701080829e-07
503 2 4.24915920903726178e-07
504 2 4.05282162706368615e-07
505 2 4.01587966388031423e-07
506 2 4.02596151051690377e-07
507 2 4.07259792084975135e-07
508 2 4.18118706416782514e-07
509 2 3.91708013136289610e-07
510 2 4.02119509112782406e-07
511 2 3.91120713103350953e-07
512 2 3.90197757726699268e-07
513 2 4.04362223422911288e-07
514 2 4.04132232948788395e-07
515 2 4.01646821041167293e-07
516 2 4.01693634932725410e-07
517 2 4.03476065434865104e-07
518 2 4.04303180138413901e-07
519 2 4.01806331854129285e-07
520 2 4.02764459771222139e-07
521 2 4.06267030324827259e-07
522 2 4.06330033999999977e-07
523 2 4.05244771320830924e-07
524 2 4.24142381563601899e-07
525 2 4.08312318245208335e-07
526 2 4.08861030647585700e-07
527 2 4.09941791356905871e-07
528 2 4.10159589818443686e-07
529 2 4.08929443500000042e-07
530 2 4.09483432189371097e-07
531 2 4.07861624010179075e-07
532 2 4.06945380999999948e-07
533 2 4.07264022647870607e-07
534 2 4.07259180010541535e-07
535 2 4.07745953189044908e-07
536 2 4.08490197617963104e-07
537 2 4.08396804309396973e-07
538 2 4.20805329880438091e-07
539 2 4.19924873109736042e-07
540 2 4.15477251168983754e-07
541 2 4.14934332993787932e-07
542 2 4.00615735848678610e-07
543 2 4.02112280981541731e-07
544 2 4.02547646069154627e-07
545 2 4.01557356013816743e-07
546 2 4.02487572815423987e-07
547 2 3.82505515254787390e-07
548 2 3.82101339780757860e-07
549 2 3.99138070001829908e-07
550 2 3.98360569392861743e-07
551 2 3.99138314572954670e-07
552 2 4.02107605635445956e-07
553 2 4.01991893159756025e-07
554 2 4.11396862781202066e-07
555 2 4.11914226249999939e-07
556 2 4.09955632159304329e-07
557 2 4.10582574865024279e-07
558 2 4.08878351709297972e-07
559 2 4.08236327961392743e-07
560 2 4.08882616690813290e-07
561 2 4.08282531603368485e-07
562 2 4.11463476269453690e-07
563 2 4.11822334696395060e-07
564 2 4.12723933183086733e-07
565 2 4.12678725793170063e-07
566 2 4.12199767903629942e-07
567 2 4.12209282031822604e-07
568 2 4.11855873090858572e-07
569 2 4.11641908245386594e-07
570 2 4.14138637579966166e-07
571 2 4.14619115373264982e-07
572 2 4.14386644158522265e-07
573 2 4.14931338240852131e-07
574 2 4.16655861605525637e-07
575 2 4.15785379048400216e-07
576 2 4.04691663477354526e-07
577 2 4.05526478033422955e-07
578 2 4.04466650631043561e-07
579 2 4.03839733604734229e-07
580 2 4.10142234387286965e-07
581 2 4.10769000824151772e-07
582 2 4.01256908344278065e-07
583 2 4.02863256335295346e-07
584 2 4.01964837976869550e-07
585 2 4.02139441068989520e-07
586 2 4.02711488376478810e-07
587 2 4.03220967815934656e-07
588 2 4.03172840631422042e-07
589 2 4.03634014022080585e-07
590 2 4.04100713937165900e-07
591 2 4.04413022083495277e-07
592 2 4.00237959493128656e-07
593 2 3.92853361753220386e-07
594 2 3.92835007280793072e-07
595 2 3.93592270068513684e-07
596 2 4.04031275494969068e-07
597 2 4.03781556750420117e-07
598 2 4.04562856793674743e-07
599 2 4.20006202938300271e-07
600 2 4.19559130195299275e-07
601 2 4.18967395074326478e-07
602 2 4.19561951090988613e-07
603 2 4.19523941542280012e-07
604 2 4.18730221750336141e-07
605 2 4.14675057323935860e-07
606 2 4.14345739520856179e-07
607 2 4.21204347301495957e-07
608 2 4.10949344749999936e-07
609 2 4.10359094465122228e-07
610 2 4.10344339275112090e-07
611 2 4.10547841005439047e-07
612 2 4.12445352267883108e-07
613 2 4.26106268174170472e-07
614 2 4.25820485861389887e-07
615 2 4.26007464014980836e-07
616 2 4.26684963105148669e-07
617 2 4.26769362457053120e-07
618 2 4.24542470012479312e-07
619 2 4.25281856150957222e-07
620 2 4.25098599146256135e-07
621 2 4.22418227295626801e-07
622 2 4.23632720788534320e-07
623 2 4.24253607014840347e-07
624 2 4.24702298386766953e-07
625 2 4.27366433931834682e-07
626 2 4.27405648050227071e-07
627 2 4.28098927000000001e-07
628 2 4.27130318918514775e-07
629 2 4.12043187902126984e-07
630 2 4.12573148950807485e-07
631 2 4.12695556993652665e-07
632 2 4.10137497977003183e-07
633 2 4.11653825312023712e-07
634 2 4.12271580620136418e-07
635 2 4.05685997593218161e-07
636 2 4.05941155573982826e-07
637 2 4.06684921591840287e-07
638 2 4.04878844898763101e-07
639 2 4.19189722063956845e-07
640 2 4.18219777414937440e-07
641 2 3.83844435000000022e-07
642 2 3.85507371540189764e-07
643 2 3.80778768468713176e-07
644 2 3.79979803390934787e-07
645 2 4.16313744665827536e-07
646 2 4.16750762512599969e-07
647 2 4.17436046499999963e-07
648 2 4.15996834444476644e-07
649 2 4.15907840999999973e-07
650 2 3.87022655119145431e-07
651 2 3.87428886490880214e-07
652 2 3.91074140080868409e-07
653 2 3.90165921896231353e-07
654 2 4.18204643175316742e-07
655 2 4.18885107813400868e-07
656 2 4.18455917820547936e-07
657 2 4.17338886499999988e-07
658 2 4.17613289700955509e-07
659 2 4.17267835400367075e-07
660 2 4.16545831499999974e-07
661 2 4.17640062744724430e-07
662 2 4.18269164048591141e-07
663 2 4.19400004999999975e-07
664 2 4.18623814135880328e-07
665 2 4.17936036262836880e-07
666 2 4.20808453953499662e-07
667 2 4.00222587788630747e-07
668 2 3.99610026985518604e-07
669 2 4.11094217579044754e-07
670 2 4.10516683791485464e-07
671 2 4.10013296014997137e-07
672 2 4.10030629067895016e-07
673 2 4.15128419755888517e-07
674 2 4.15565543043054831e-07
675 2 4.15858020999999987e-07
676 2 4.16352492749962051e-07
677 2 4.09085014332524262e-07
678 2 4.08640745500000042e-07
679 2 4.09092060459798839e-07
680 2 4.12515797171024519e-07
681 2 4.13223668961564727e-07
682 2 4.13242707027345492e-07
683 2 4.13039748665061402e-07
684 2 4.12050939084397998e-07
685 2 4.12644911127348910e-07
686 2 4.13179359167620411e-07
687 2 4.11818597221435625e-07
688 2 4.11963416096150463e-07
689 2 4.11409849365352135e-07
690 2 4.11387501000000020e-07
691 2 4.12361183668475038e-07
692 2 4.12572860999999944e-07
693 2 4.13539828126199592e-07
694 2 4.20425282999869029e-07
695 2 4.21273898999999969e-07
696 2 4.21172323959773735e-07
697 2 4.20613270644587635e-07
698 2 4.16738892249999990e-07
699 2 3.91266268999294846e-07
700 2 3.90928860000000014e-07
701 2 3.91312989999651256e-07
702 2 3.92358993484661877e-07
703 2 3.92037487000000051e-07
704 2 3.88548017403007822e-07
705 2 3.87783882098061635e-07
706 2 3.88362975512850084e-07
707 2 3.87544411325714874e-07
708 2 3.88255574952588601e-07
709 2 3.89463521449210062e-07
710 2 3.88834331190632715e-07
711 2 3.89311157654466622e-07
712 2 3.87751810672980292e-07
713 2 3.86503812109639505e-07
714 2 3.86977518702302583e-07
715 2 3.86372193374066266e-07
716 2 3.86334813033333746e-07
717 2 3.86875263537179881e-07
718 2 3.86894003496832530e-07
719 2 3.86042283316117412e-07
720 2 3.86468711888591959e-07
721 2 3.86911782188944325e-07
722 2 3.85918236526468363e-07
723 2 3.85149475116780676e-07
724 2 3.85734184417184357e-07
725 2 3.84864525375785872e-07
726 2 3.85681275279823862e-07
727 2 3.85573854929192637e-07
728 2 3.85018884797051245e-07
729 2 3.84009711908289542e-07
730 2 3.84060864255706776e-07
731 2 3.85933029053618501e-07
732 2 3.86452789000000081e-07
733 2 3.86742875416735109e-07
734 2 3.85282856719697852e-07
735 2 3.84217686622546087e-07
736 2 3.84587187065019987e-07
737 2 3.88100079283259474e-07
738 2 3.88728996633392946e-07
739 2 3.89525934995228550e-07
740 2 3.90292023837303625e-07
741 2 3.89728515558070142e-07
742 2 3.90510746544175391e-07
743 2 3.90854539038333836e-07
744 2 3.92555886562916095e-07
745 2 3.91594330719213411e-07
746 2 3.91756560407728650e-07
747 2 3.92402956534087436e-07
748 2 3.92877497541628105e-07
749 2 3.92426336172478961e-07
750 2 3.91962093841675139e-07
751 2 3.93252592570874885e-07
752 2 3.94153809585009094e-07
753 2 3.93879127947429844e-07
754 2 3.94667274707731322e-07
755 2 3.93337737587438575e-07
756 2 3.93569694316757921e-07
757 2 3.93246326442060425e-07
758 2 3.93700068013530948e-07
759 2 3.94894889186047992e-07
760 2 3.94056670331327486e-07
761 2 3.94377748022605720e-07
762 2 3.94964912118599080e-07
763 2 3.94671535602873301e-07
764 2 3.94156451307319509e-07
765 2 3.94049017694044072e-07
766 2 3.94825781864809566e-07
767 2 3.94564758954823139e-07
768 2 3.93946499961476319e-07
769 2 3.93136129325600708e-07
770 2 3.95103778999999981e-07
771 2 3.94579755997915867e-07
772 2 3.95437119630826759e-07
773 2 3.95762501000000011e-07
774 2 3.95320769760484026e-07
775 2 3.93071765896754319e-07
776 2 3.92471234462679991e-07
777 2 3.92796115983403464e-07
778 2 3.91752456230810773e-07
779 2 3.91354161510075644e-07
780 2 3.91769437409064281e-07
781 2 3.92085410536805898e-07
782 2 3.91680433225808879e-07
783 2 3.91702056049683658e-07
784 2 3.92448591691724713e-07
785 2 3.90675814527905619e-07
786 2 3.90537716752320663e-07
787 2 3.91208152020206011e-07
788 2 3.90856648863010593e-07
789 2 3.90078458886126510e-07
790 2 3.89601914390338937e-07
791 2 3.95743159895968787e-07
792 2 3.95919306176663582e-07
793 2 3.96257705406376089e-07
794 2 3.97083260487587131e-07
795 2 3.96532031749149688e-07
796 2 3.96419628464801521e-07
797 2 3.95409632533832199e-07
798 2 3.94791991278043938e-07
799 2 3.95294137086920258e-07
800 2 3.95539783741255857e-07
801 2 3.94816844031332037e-07
802 2 3.94979576647563680e-07
803 2 3.95224721055451423e-07
804 2 3.95850526093657005e-07
805 2 3.96676949854920809e-07
806 2 3.96585381741377028e-07
807 2 3.97455304316438564e-07
808 2 3.96629090896570617e-07
809 2 3.97037691730814365e-07
810 2 3.97773922350172401e-07
811 2 3.98379813480162074e-07
812 2 3.97753892770312311e-07
813 2 3.98381559741658384e-07
814 2 3.97164383881142919e-07
815 2 3.97653771565464305e-07
816 2 3.97283103107359045e-07
817 2 3.97920466237353722e-07
818 2 3.98161106000000002e-07
819 2 3.98590681285681455e-07
820 2 3.97891151557154573e-07
821 2 3.96455555000000014e-07
822 2 3.95993757500000013e-07
823 2 3.96917352500000015e-07
824 2 3.97924679865549284e-07
825 2 3.98750516643106178e-07
826 2 3.99291248500000053e-07
827 2 3.99331522250000059e-07
828 2 3.99843738541269372e-07
829 2 4.00438120894424031e-07
830 2 4.01873896374332800e-07
831 2 4.01775829034368255e-07
832 2 4.01163534805628741e-07
833 2 4.01181837086682165e-07
834 2 4.03051447214264509e-07
835 2 4.02445539201463635e-07
836 2 4.03060802313519089e-07
837 2 4.04134871369784827e-07
838 2 4.03524459740875186e-07
839 2 4.03819617350216478e-07
840 2 4.03692329608189365e-07
841 2 4.03431043648773324e-07
842 2 4.04093906304093929e-07
843 2 4.03282226337151959e-07
844 2 4.02719776973046545e-07
845 2 4.04012473152220238e-07
846 2 4.04096431961929521e-07
847 2 4.03134128933514511e-07
848 2 4.03690331910446089e-07
849 2 4.03471779285675937e-07
850 2 4.03351451614534094e-07
851 2 4.02716252928212484e-07
852 2 4.02480564000000022e-07
853 2 4.03337694469513020e-07
854 2 4.04856984557433341e-07
855 2 4.05443635553458964e-07
856 2 4.05100497999999948e-07
857 2 4.04718548440664828e-07
858 2 4.04586097716924056e-07
859 2 4.03823841120914624e-07
860 2 4.05421272176475710e-07
861 2 4.04638564749993393e-07
862 2 4.04379300597904332e-07
863 2 4.05504778612344621e-07
864 2 4.04456149048445537e-07
865 2 4.04188693633358131e-07
866 2 4.03653178644601634e-07
867 2 4.04991664037182288e-07
868 2 4.04983798269200177e-07
869 2 4.05699265009824755e-07
870 2 4.06223627973736181e-07
871 2 4.05567846360079760e-07
872 2 4.07415348062485294e-07
873 2 4.06599866898504272e-07
874 2 4.06685753977223814e-07
875 2 4.07443192182121281e-07
876 2 4.08378052887505329e-07
877 2 4.07803354284837304e-07
878 2 4.08070762378765750e-07
879 2 4.08110644793601923e-07
880 2 4.08834218862626020e-07
881 2 4.09403438499999979e-07
882 2 4.08459877662928771e-07
883 2 4.08455973102346246e-07
884 2 4.07456984717933044e-07
885 2 4.07971905604026125e-07
886 2 4.06890349138273531e-07
887 2 4.07715137472424780e-07
888 2 4.07224792755604722e-07
889 2 4.06309483944197917e-07
890 2 4.06496904348904133e-07
891 2 4.05604162866723117e-07
892 2 4.05959794149442986e-07
893 2 4.06157429628515569e-07
894 2 4.05625188310837667e-07
895 2 4.04707743657254839e-07
896 2 4.04421000969801736e-07
897 2 4.07410947867952663e-07
898 2 4.06763606517980475e-07
899 2 4.07799610275135095e-07
900 2 4.08467493670335908e-07
901 2 4.07900953468784253e-07
902 2 4.09264908671857391e-07
903 2 4.09264941207694838e-07
904 2 4.09193784175524803e-07
905 2 4.09567687834574212e-07
906 2 4.09042180664636613e-07
907 2 4.09037565282724851e-07
908 2 4.09656506018729812e-07
909 2 4.09820471012133708e-07
910 2 4.08482107953217245e-07
911 2 4.07849069598945203e-07
912 2 4.07551112436717089e-07
913 2 4.07397393703185181e-07
914 2 4.06545776114283460e-07
915 2 4.05565833491198929e-07
916 2 4.06154788951270011e-07
917 2 4.05891779596016095e-07
918 2 4.04858333323372590e-07
919 2 4.04479981067727289e-07
920 2 4.04916995540643191e-07
921 2 4.05110287153855317e-07
922 2 4.04711348038229874e-07
923 2 4.03128291568745651e-07
924 2 4.02756834974690121e-07
925 2 4.03222487330993320e-07
926 2 3.98560409832731476e-07
927 2 3.98219673928889689e-07
928 2 3.99099023684497618e-07
929 2 3.98467981664616278e-07
930 2 3.91333166864595323e-07
931 2 4.15705033562358292e-07
932 2 4.15784841813763365e-07
933 2 4.15030021500000056e-07
934 2 4.14174008994529801e-07
935 2 4.16643787615551260e-07
936 2 4.16141916477350111e-07
937 2 4.15817394373992307e-07
938 2 4.15573835240029811e-07
939 2 4.15147673767637198e-07
940 2 4.14760379500000043e-07
941 2 4.14254583506822265e-07
942 2 4.14073044607839504e-07
943 2 4.16872942602309596e-07
944 2 4.17223015219995637e-07
945 2 4.17448357417155460e-07
946 2 4.17587298507186509e-07
947 2 4.18130001432842680e-07
948 2 4.16667285392730197e-07
949 2 4.16772957716719971e-07
950 2 4.17776394832111160e-07
951 2 3.80118775877114523e-07
952 2 3.80896875701142397e-07
953 2 3.80200238210702880e-07
954 2 3.80771145211659464e-07
955 2 3.80948316576786727e-07
956 2 3.79707472117545454e-07
957 2 3.79230556499999995e-07
958 2 3.81557437635874837e-07
959 2 3.81519589057206682e-07
960 2 3.81308689375736430e-07
961 2 3.80830249170688209e-07
962 2 3.80220396734555237e-07
963 2 3.79783325000000021e-07
964 2 3.82063730074793908e-07
965 2 3.81965522777109829e-07
966 2 3.83042109403642746e-07
967 2 3.82617055088301099e-07
968 2 3.83364841717756288e-07
969 2 3.82155793934280902e-07
970 2 3.82085623376687522e-07
971 2 3.82778801330601018e-07
972 2 3.82106952499999982e-07
973 2 3.82670798934212339e-07
974 2 3.83386699229432463e-07
975 2 3.83787234009565910e-07
976 2 3.83430049882443906e-07
977 2 3.84369054996754917e-07
978 2 3.83149366123313508e-07
979 2 3.84015273999999976e-07
980 2 3.83791162585271236e-07
981 2 3.83225002000000052e-07
982 2 3.82759759371926708e-07
983 2 4.06807762521364458e-07
984 2 4.06141438922507908e-07
985 2 4.11257340235866783e-07
986 2 4.11913726571996059e-07
987 2 4.11665979022570310e-07
988 2 4.10897751454938009e-07
989 2 4.09503153300474360e-07
990 2 4.10333541021323131e-07
991 2 4.10788939180275349e-07
992 2 4.10153255293184578e-07
993 2 4.09435531937030814e-07
994 2 4.09536244641750787e-07
995 2 4.08961136554963039e-07
996 2 4.08334054419438162e-07
997 2 4.08804037149029611e-07
998 2 4.09977758670661195e-07
999 2 4.10792894626451543e-07
1000 2 4.09465753303532800e-07
1001 2 4.10181863390260815e-07
1002 2 4.09737316499344630e-07
1003 2 4.08978823008103953e-07
1004 2 4.08115579168455353e-07
1005 2 4.08707204861434553e-07
1006 2 4.07888500853505860e-07
1007 2 4.08095587027963404e-07
1008 2 4.06990510907647595e-07
1009 2 4.09071484553866195e-07
1010 2 4.09176308419256126e-07
1011 2 4.08866006460377228e-07
1012 2 4.09199785200494021e-07
1013 2 4.08080015132668799e-07
1014 2 4.07477995934738841e-07
1015 2 4.07724991500000002e-07
1016 2 4.07865198011246860e-07
1017 2 4.07407627250000015e-07
1018 2 4.07683417327170091e-07
1019 2 4.08941963467377039e-07
1020 2 4.08651890902019755e-07
1021 2 4.08308417120686111e-07
1022 2 4.08556874841614573e-07
1023 2 4.07616160863762205e-07
1024 2 4.08139120773811434e-07
1025 2 4.07407991254286740e-07
1026 2 4.12836642381745075e-07
1027 2 4.13574242470887214e-07
1028 2 4.13614351660047370e-07
1029 2 4.12916722106054390e-07
1030 2 4.12298624663322609e-07
1031 2 4.11405687874422844e-07
1032 2 4.12075094441680261e-07
1033 2 4.11277653911394187e-07
1034 2 4.10608018010244922e-07
1035 2 4.10528533848646210e-07
1036 2 4.10793047519798526e-07
1037 2 4.09620552705743486e-07
1038 2 4.10195811293985342e-07
1039 2 4.09831676380394664e-07
1040 2 4.10019911463692473e-07
1041 2 4.10246958919010248e-07
1042 2 4.11466067425736380e-07
1043 2 4.11107380472117906e-07
1044 2 4.11552670423863334e-07
1045 2 4.10750256115877202e-07
1046 2 4.10392007749539546e-07
1047 2 4.10983103297956834e-07
1048 2 4.10388172614829503e-07
1049 2 4.09670341603067773e-07
1050 2 4.09210991102326759e-07
1051 2 4.08670723050737427e-07
1052 2 4.09005227869697833e-07
1053 2 4.09731225683382106e-07
1054 2 4.10912640893153957e-07
1055 2 4.10319114014055294e-07
1056 2 4.10743325050933813e-07
1057 2 4.10330522431940623e-07
1058 2 4.11492829926161209e-07
1059 2 4.12106657384590597e-07
1060 2 4.10993200956657239e-07
1061 2 4.11731033950855506e-07
1062 2 4.12648853533203747e-07
1063 2 4.13009220355029883e-07
1064 2 4.12255606982816255e-07
1065 2 4.12274548101817019e-07
1066 2 4.12648298036649580e-07
1067 2 4.09627414825176624e-07
1068 2 4.09833065904184337e-07
1069 2 4.08258324999999990e-07
1070 2 4.08706013262748563e-07
1071 2 4.09352046979022498e-07
1072 2 4.09198037930427799e-07
1073 2 4.08893871263028152e-07
1074 2 4.09885567907029971e-07
1075 2 4.09325344093513944e-07
1076 2 4.12906984896541786e-07
1077 2 4.12638000058564512e-07
1078 2 4.12182862877756667e-07
1079 2 4.13362122077330890e-07
1080 2 4.12611258333389254e-07
1081 2 4.11934416515508158e-07
1082 2 4.12750746413320731e-07
1083 2 4.12111708054887792e-07
1084 2 4.12778891262904702e-07
1085 2 4.13331999359306620e-07
1086 2 4.11544740417084562e-07
1087 2 4.11719245884229603e-07
1088 2 4.13481170747835360e-07
1089 2 4.12727625097649960e-07
1090 2 4.24825828122080086e-07
1091 2 4.25350632176339021e-07
1092 2 4.25818691000000000e-07
1093 2 4.23880831691812682e-07
1094 2 4.23071300462159592e-07
1095 2 4.23215099825828176e-07
1096 2 4.22287188611724252e-07
1097 2 4.23806856899925137e-07
1098 2 4.23573907848574718e-07
1099 2 4.22737566878754964e-07
1100 2 4.20559817203557872e-07
1101 2 4.20458305178926115e-07
1102 2 4.19247946419620029e-07
1103 2 4.18659419458375719e-07
1104 2 4.18586367977843681e-07
1105 2 4.17838440000000047e-07
1106 2 4.19547838191495052e-07
1107 2 4.18883723003812451e-07
1108 2 4.19909313294291965e-07
1109 2 4.19536444042356228e-07
1110 2 4.20352705731989985e-07
1111 2 4.18805188871597582e-07
1112 2 4.18571840874915816e-07
1113 2 4.19321706210476431e-07
1114 2 4.19509554586448078e-07
1115 2 4.21195264266966903e-07
1116 2 4.20191385311048181e-07
1117 2 4.20985443993919789e-07
1118 2 4.20489328680664638e-07
1119 2 4.21136479100332757e-07
1120 2 4.20367266818816566e-07
1121 2 4.21676493242154317e-07
1122 2 4.22029793211640411e-07
1123 2 4.22046796858994715e-07
1124 2 4.20073120977725543e-07
1125 2 4.19150102298173746e-07
1126 2 4.19398667489420870e-07
1127 2 4.19828754598007432e-07
1128 2 4.20403024686135906e-07
1129 2 4.21131696764938644e-07
1130 2 4.21164589170244376e-07
1131 2 4.21749682668866382e-07
1132 2 4.21889864539675036e-07
1133 2 4.25082800650409109e-07
1134 2 4.25326473832233774e-07
1135 2 4.24357557191523839e-07
1136 2 4.24628532094981543e-07
1137 2 4.23929108027839014e-07
1138 2 4.23964619571272655e-07
1139 2 4.24868058929546571e-07
1140 2 4.23174262955536755e-07
1141 2 4.22581923935828315e-07
1142 2 4.21361138428129899e-07
1143 2 4.21023948208055348e-07
1144 2 4.20898703391248301e-07
1145 2 4.19852672190091236e-07
1146 2 4.20496300549130360e-07
1147 2 4.20085902003347642e-07
1148 2 4.20287321914008249e-07
1149 2 4.19550127294732160e-07
1150 2 4.19923773212172640e-07
1151 2 4.21306553766372748e-07
1152 2 4.20982371662930468e-07
1153 2 4.20612095173867788e-07
1154 2 4.22318490733650613e-07
1155 2 4.21612041483571500e-07
1156 2 4.22080344473216140e-07
1157 2 4.21704937243053497e-07
1158 2 4.21491800310770051e-07
1159 2 4.22238902999999992e-07
1160 2 4.22836844259748562e-07
1161 2 4.23056945499999962e-07
1162 2 4.19993753181918430e-07
1163 2 4.19120581210077088e-07
1164 2 4.19449583672478234e-07
1165 2 4.18877793724982108e-07
1166 2 4.15347386184291834e-07
1167 2 4.15999299318684623e-07
1168 2 4.15997716575432672e-07
1169 2 4.15498866982236767e-07
1170 2 4.14973296377962308e-07
1171 2 4.14087666318816347e-07
1172 2 4.13500983802891634e-07
1173 2 4.13017066545503485e-07
1174 2 4.14603281311885271e-07
1175 2 4.13946592246376840e-07
1176 2 4.14046696382499390e-07
1177 2 4.12322497938881952e-07
1178 2 4.12178002486742276e-07
1179 2 4.13694185123254604e-07
1180 2 4.13689599490690073e-07
1181 2 4.04307672285551771e-07
1182 2 4.04907371040544009e-07
1183 2 4.05099961607875324e-07
1184 2 4.04136858406384123e-07
1185 2 4.04331848444734756e-07
1186 2 4.03637608918777047e-07
1187 2 4.04976895651434700e-07
1188 2 4.03381580405646636e-07
1189 2 4.04646551470792343e-07
1190 2 4.04593989846302662e-07
1191 2 4.03905753966059414e-07
1192 2 4.05334787351078737e-07
1193 2 4.05439693284132022e-07
1194 2 4.06185659340178056e-07
1195 2 4.05613082390271807e-07
1196 2 4.06343552277836486e-07
1197 2 4.05606777826684356e-07
1198 2 4.04144926499002455e-07
1199 2 4.02995833999999971e-07
1200 2 4.04699611586210574e-07
1201 2 4.05349254366135134e-07
1202 2 4.03488065552992597e-07
1203 2 4.02995147499999969e-07
1204 2 3.94099998499999957e-07
1205 2 3.93451224503735747e-07
1206 2 3.92669836465393646e-07
1207 2 3.92542308372539967e-07
1208 2 3.92157305137122726e-07
1209 2 3.92019699325561831e-07
1210 2 3.93316183736553118e-07
1211 2 3.94069430327063910e-07
1212 2 3.99764056375734310e-07
1213 2 4.04146461355113272e-07
1214 2 4.05057507936628451e-07
1215 2 4.04717008215364942e-07
1216 2 4.02538481625390894e-07
1217 2 4.02115617470234985e-07
1218 2 4.10511949695221208e-07
1219 2 4.03434062900855457e-07
1220 2 4.13341420725766665e-07
1221 2 4.13834995108095017e-07
1222 2 4.14048777586024339e-07
1223 2 4.12978212923137966e-07
1224 2 4.12843381955367262e-07
1225 2 4.13471814913455231e-07
1226 2 4.12324307429364318e-07
1227 2 4.12393470697608226e-07
1228 2 4.12837522226966337e-07
1229 2 4.12251311093887507e-07
1230 2 4.11855474771380547e-07
1231 2 4.11568062551198309e-07
1232 2 4.12568787670683641e-07
1233 2 4.13253823377026087e-07
1234 2 4.11759981951981931e-07
1235 2 4.15812349187387206e-07
1236 2 4.15771271003363119e-07
1237 2 4.15210090176764003e-07
1238 2 4.15230657776576000e-07
1239 2 4.14998764469557492e-07
1240 2 4.14716351580453092e-07
1241 2 4.17377644047709898e-07
1242 2 4.16647450512348025e-07
1243 2 4.16267787588235874e-07
1244 2 4.16697772507407606e-07
1245 2 4.17431132385835819e-07
1246 2 4.16836901219829773e-07
1247 2 4.12707230882157556e-07
1248 2 4.09168241327014939e-07
1249 2 4.00676385567101768e-07
1250 2 4.01645541756745242e-07
1251 2 4.01913515121877899e-07
1252 2 4.00702532614105777e-07
1253 2 4.00799921499999969e-07
1254 2 4.00349264093440743e-07
1255 2 4.00091664999999930e-07
1256 2 4.15674743333501080e-07
1257 2 4.16376195930886127e-07
1258 2 4.15926784415180319e-07
1259 2 4.16847505940126930e-07
1260 2 4.16366709831578608e-07
1261 2 4.16979909375935463e-07
1262 2 4.17467890627479798e-07
1263 2 4.17434314478427851e-07
1264 2 4.17218147208994926e-07
1265 2 4.18058890695521116e-07
1266 2 4.16593570991717537e-07
1267 2 4.16995089251932918e-07
1268 2 4.17610479323692088e-07
1269 2 4.17372315916254192e-07
1270 2 4.18260732979482638e-07
1271 2 4.18626977073165253e-07
1272 2 4.17490763984041403e-07
1273 2 4.17913799000000031e-07
1274 2 4.15658728337152302e-07
1275 2 4.16821441252661493e-07
1276 2 4.20026561640831619e-07
1277 2 4.07979960354783394e-07
1278 2 4.07627975487764046e-07
1279 2 4.05972526149405262e-07
1280 2 4.06967902523457054e-07
1281 2 4.07549641129900008e-07
1282 2 4.06095686775679247e-07
1283 2 4.06706938356104751e-07
1284 2 4.06377486450918680e-07
1285 2 4.05389995165922201e-07
1286 2 4.07184658557543059e-07
1287 2 4.07761621217592703e-07
1288 2 4.07146194505470247e-07
1289 2 4.05475341281680425e-07
1290 2 4.04334588533576641e-07
1291 2 4.04762661094912951e-07
1292 2 4.04069806078963405e-07
1293 2 4.03555011638092104e-07
1294 2 4.03966587278742652e-07
1295 2 4.03015311801568880e-07
1296 2 4.04969084193159635e-07
1297 2 4.04465811991858078e-07
1298 2 4.05591446343651615e-07
1299 2 4.06188609513978159e-07
1300 2 4.05944699829857653e-07
1301 2 4.06735088224622362e-07
1302 2 4.08496147405078721e-07
1303 2 4.23830899869470198e-07
1304 2 4.03684474062655718e-07
1305 2 4.03740458854816817e-07
1306 2 4.02740988964403235e-07
1307 2 4.04287673585894601e-07
1308 2 3.90842741984707527e-07
1309 2 3.91132082535020173e-07
1310 2 3.90369153053339695e-07
1311 2 3.91605671466279690e-07
1312 2 3.91961097375495720e-07
1313 2 3.92244720296486459e-07
1314 2 3.91177112074261965e-07
1315 2 3.90087475008326619e-07
1316 2 3.89618574719636578e-07
1317 2 3.89225005999999988e-07
1318 2 3.89909755244393027e-07
1319 2 3.92545467498606817e-07
1320 2 4.01983621028979813e-07
1321 2 4.01593055499999951e-07
1322 2 4.04310092499999964e-07
1323 2 4.04586773079253848e-07
1324 2 4.04344653999999974e-07
1325 2 4.03480777500000025e-07
1326 2 4.03968603802350264e-07
1327 2 4.04890343117924769e-07
1328 2 4.06832316020108702e-07
1329 2 4.07566029640241855e-07
1330 2 4.07039279193445916e-07
1331 2 4.07658628244368937e-07
1332 2 4.07819722007112700e-07
1333 2 4.08282411648889400e-07
1334 2 4.08374912075245246e-07
1335 2 4.09319840000000017e-07
1336 2 4.08160919841419417e-07
1337 2 4.06853422848576075e-07
1338 2 4.07601930346328674e-07
1339 2 4.08805908365340238e-07
1340 2 4.10244444999999977e-07
1341 2 4.09170225032897886e-07
1342 2 4.09977092499999957e-07
1343 2 4.08027271745713654e-07
1344 2 4.08409166329470122e-07
1345 2 4.07858559575383566e-07
1346 2 4.07290249766054314e-07
1347 2 4.07776720135300837e-07
1348 2 4.07059410133388019e-07
1349 2 4.08061118766989970e-07
1350 2 4.09434998212282980e-07
1351 2 4.08802014781546509e-07
1352 2 4.09577420545393983e-07
1353 2 4.06185176214737553e-07
1354 2 4.06764572854372474e-07
1355 2 4.06277186128809219e-07
1356 2 4.06672562940327860e-07
1357 2 4.05866180880796985e-07
1358 2 4.06462606623384358e-07
1359 2 4.06354457625036627e-07
1360 2 4.05643197412679721e-07
1361 2 4.07214696663343099e-07
1362 2 4.07431684976710578e-07
1363 2 4.07366154241564055e-07
1364 2 4.07888045913422421e-07
1365 2 4.09041529487533586e-07
1366 2 4.08299345403880744e-07
1367 2 4.07052246198846361e-07
1368 2 4.05778394750035415e-07
1369 2 4.05515313752301668e-07
1370 2 4.06182754323035959e-07
1371 2 4.05744021875358530e-07
1372 2 4.05547457588033316e-07
1373 2 4.05118063999999982e-07
1374 2 4.07356129033896673e-07
1375 2 4.08609830308985942e-07
1376 2 4.09006839411897037e-07
1377 2 4.07014600526870693e-07
1378 2 4.06952581759586503e-07
1379 2 4.06138389797830168e-07
1380 2 4.06384090829191816e-07
1381 2 4.06467811627650792e-07
1382 2 4.06079651737942249e-07
1383 2 4.06646346783773230e-07
1384 2 4.19384048066793161e-07
1385 2 4.18472692690566942e-07
1386 2 4.17853370048234022e-07
1387 2 4.19699274133981653e-07
1388 2 4.20291658480744924e-07
1389 2 4.20946868602065131e-07
1390 2 4.21653422209291723e-07
1391 2 4.23214419724673140e-07
1392 2 4.22371870751404089e-07
1393 2 4.22825728902985770e-07
1394 2 4.22808023863028887e-07
1395 2 4.22167523610990688e-07
1396 2 4.22029993677750344e-07
1397 2 4.21150372289803808e-07
1398 2 4.24136336152983714e-07
1399 2 4.23524980901757823e-07
1400 2 4.24315439540873261e-07
1401 2 4.21095973821673293e-07
1402 2 4.22768221366427537e-07
1403 2 4.22023892057314908e-07
1404 2 4.22407349383305967e-07
1405 2 4.22384773629832528e-07
1406 2 4.24026374499999997e-07
1407 2 4.23186023495101867e-07
1408 2 4.23610396441316421e-07
1409 2 4.23190262934386096e-07
1410 2 4.23846992789327260e-07
1411 2 4.20950298507638799e-07
1412 2 4.19656374944928637e-07
1413 2 4.19764392017002855e-07
1414 2 4.20392172015713002e-07
1415 2 4.20150255841259292e-07
1416 2 4.06187629499999990e-07
1417 2 4.11675125613411561e-07
1418 2 4.13862858000000019e-07
1419 2 4.10674335328493419e-07
1420 2 4.10532230967153972e-07
1421 2 4.10119425230128371e-07
1422 2 4.09833193499621749e-07
1423 2 4.11227651901925195e-07
1424 2 4.11738675479257929e-07
1425 2 4.16478196999999952e-07
1426 2 4.15845865192192137e-07
1427 2 4.16794928492619113e-07
1428 2 4.18419496896435438e-07
1429 2 4.17376053412708093e-07
1430 2 4.16878169759161630e-07
1431 2 4.17863273128256060e-07
1432 2 4.17963375810628509e-07
1433 2 4.16981705992739565e-07
1434 2 4.17351537630905587e-07
1435 2 4.18120727332286027e-07
1436 2 4.16597697768692850e-07
1437 2 4.16308152591378995e-07
1438 2 4.15754524862328668e-07
1439 2 4.16579164756640212e-07
1440 2 4.18567103328305889e-07
1441 2 4.17300979503153997e-07
1442 2 4.06268877776411364e-07
1443 2 3.81840286000000015e-07
1444 2 3.82204872502836357e-07
1445 2 3.82448615999999996e-07
1446 2 3.82387855751326562e-07
1447 2 3.82509727500000019e-07
1448 2 3.82479347375602978e-07
1449 2 3.82540283250000031e-07
1450 2 3.82525093187613469e-07
1451 2 3.82555561125000037e-07
1452 2 3.82563200062499987e-07
1453 2 3.82547922187500034e-07
1454 2 3.82510616107296165e-07
1455 2 3.82442083345458167e-07
1456 2 3.82510446368289057e-07
1457 2 3.82690277000000046e-07
1458 2 3.82525713788269069e-07
1459 2 3.82630558000000045e-07
1460 2 3.82533476467998337e-07
1461 2 3.82494537437697155e-07
1462 2 3.82525005375000025e-07
1463 2 3.82532644312500028e-07
1464 2 3.82517366437500022e-07
1465 2 3.82457143545275141e-07
1466 2 3.82418854774515946e-07
1467 2 3.82479171750000008e-07
1468 2 3.82441229184575878e-07
1469 2 3.82494449625000013e-07
1470 2 3.81994799542294672e-07
1471 2 3.82200671651693988e-07
1472 2 3.82305227035349792e-07
1473 2 3.82333199748080673e-07
1474 2 3.82358439400734986e-07
1475 2 3.82252053949386087e-07
1476 2 3.82303242612554464e-07
1477 2 3.82146060987704598e-07
1478 2 3.82013763440546398e-07
1479 2 3.82406872209397215e-07
1480 2 3.82298411641252151e-07
1481 2 3.81824929486456474e-07
1482 2 3.82550329840084283e-07
1483 2 3.82265632751370295e-07
1484 2 3.82387504500000025e-07
1485 2 3.82357124375526909e-07
1486 2 3.82418060249999984e-07
1487 2 3.82433338124999990e-07
1488 2 3.82402782374999978e-07
1489 2 3.82328170213719054e-07
1490 2 3.82201849282416301e-07
1491 2 3.82083339500000035e-07
1492 2 3.82296012875612171e-07
1493 2 3.82356948750000066e-07
1494 2 3.82372226625000072e-07
1495 2 3.82341670875000060e-07
1496 2 3.82204866250000071e-07
1497 2 3.81885570837221617e-07
1498 2 3.82014401864762453e-07
1499 2 3.79351386999999968e-07
1500 2 3.80054479249256875e-07
1501 2 4.28427390629778301e-07
1502 2 4.28843898499999974e-07
1503 2 4.00605698173645986e-07
1504 2 3.99832063949586740e-07
1505 2 3.98895835999999988e-07
1506 2 4.22477283697002501e-07
1507 2 3.98729746837713523e-07
1508 2 3.98512496999999992e-07
1509 2 3.99303291099339027e-07
1510 2 4.17438066546333535e-07
1511 2 4.17128206794765172e-07
1512 2 4.17956124518130941e-07
1513 2 4.17642338339742305e-07
1514 2 4.17500197830870923e-07
1515 2 4.17170188553953476e-07
1516 2 4.18317562823342971e-07
1517 2 4.18585758023157625e-07
1518 2 4.19220829000000007e-07
1519 2 4.18286782722288442e-07
1520 2 4.19184713500000024e-07
1521 2 4.19163894999999997e-07
1522 2 4.18711938718857391e-07
1523 2 4.18575510296051989e-07
1524 2 4.17535902055624842e-07
1525 2 4.17970017778003400e-07
1526 2 4.18638952318067071e-07
1527 2 4.19256944499999991e-07
1528 2 4.18677069397006033e-07
1529 2 4.18006418880202385e-07
1530 2 4.15864444331202475e-07
1531 2 4.15226545072438423e-07
1532 2 4.15249781167061594e-07
1533 2 4.15706079753335723e-07
1534 2 4.15896330844240637e-07
1535 2 4.14569122379247280e-07
1536 2 4.14853269194042846e-07
1537 2 4.16461957708342171e-07
1538 2 4.16403492010702696e-07
1539 2 4.18583282940074197e-07
1540 2 4.19104176249999970e-07
1541 2 4.19077788124999975e-07
1542 2 4.18562807134768000e-07
1543 2 4.18040207028599657e-07
1544 2 4.11091880591546900e-07
1545 2 4.11160640775020247e-07
1546 2 4.11925370218983213e-07
1547 2 4.10327151147592564e-07
1548 2 4.09862569618170515e-07
1549 2 4.10369276407578075e-07
1550 2 4.09638070314412801e-07
1551 2 4.09465136853530125e-07
1552 2 4.09453520577932129e-07
1553 2 4.09132961724344836e-07
1554 2 4.11070703019551529e-07
1555 2 4.10723650712093260e-07
1556 2 4.11682312576961217e-07
1557 2 4.13037490500000000e-07
1558 2 4.12363659099194764e-07
1559 2 4.12596002506797472e-07
1560 2 4.12266422159726713e-07
1561 2 4.09900101870292505e-07
1562 2 4.09300065710455836e-07
1563 2 4.10073916719803393e-07
1564 2 4.08353613928318733e-07
1565 2 4.10305526644507895e-07
1566 2 4.11019952765183805e-07
1567 2 4.10711835173210498e-07
1568 2 4.09716958201892019e-07
1569 2 4.10086348271994696e-07
1570 2 4.11103457499999964e-07
1571 2 4.10855760687963852e-07
1572 2 4.11265611249999938e-07
1573 2 4.10336400244638439e-07
1574 2 4.09701850121162514e-07
1575 2 4.10223711966243403e-07
1576 2 4.10941303749999990e-07
1577 2 4.10136175625369176e-07
1578 2 4.10511797499999997e-07
1579 2 4.08828060303026241e-07
1580 2 4.09355957143145450e-07
1581 2 4.09020696545672947e-07
1582 2 4.08570312975052639e-07
1583 2 4.08302080863836967e-07
1584 2 4.08421345264288423e-07
1585 2 4.08833622896281347e-07
1586 2 4.08128875781786143e-07
1587 2 4.08403457881182375e-07
1588 2 4.07723589697982303e-07
1589 2 4.07346898500000030e-07
1590 2 4.07840824463635239e-07
1591 2 4.08895244890730710e-07
1592 2 4.09759487791174860e-07
1593 2 4.11392058177710987e-07
1594 2 4.18925294943130194e-07
1595 2 4.21772907163713106e-07
1596 2 4.24813959014176967e-07
1597 2 4.24995268060562903e-07
1598 2 4.24700263983822931e-07
1599 2 4.24132684635371347e-07
1600 2 4.25424916523155552e-07
1601 2 4.26078821336475499e-07
1602 2 4.26038800256638023e-07
1603 2 4.26548614499999968e-07
1604 2 4.24629245787645269e-07
1605 2 4.25386409770619481e-07
1606 2 4.26314297714851425e-07
1607 2 4.25984028449673652e-07
1608 2 4.25424166922341460e-07
1609 2 4.26874159242189016e-07
1610 2 4.26663799507182153e-07
1611 2 4.26986299691844820e-07
1612 2 4.26006242298202781e-07
1613 2 4.25404603336900637e-07
1614 2 4.26544596588499859e-07
1615 2 4.23552968311130525e-07
1616 2 4.23164883796296696e-07
1617 2 4.23539451350707705e-07
1618 2 4.23890748683126599e-07
1619 2 4.23365483133941675e-07
1620 2 4.22734793640752787e-07
1621 2 4.22521791995256235e-07
1622 2 4.22984464143611300e-07
1623 2 4.25445360282787499e-07
1624 2 4.27604106724250078e-07
1625 2 4.27615279999999991e-07
1626 2 4.24682892890388246e-07
1627 2 4.24065886509978014e-07
1628 2 4.21386068550740472e-07
1629 2 4.21758628824605194e-07
1630 2 4.21774095590730283e-07
1631 2 4.18979359620890835e-07
1632 2 4.05080157243896585e-07
1633 2 4.05529887777623646e-07
1634 2 4.04837494999999983e-07
1635 2 4.07184050025904754e-07
1636 2 4.06690811816279379e-07
1637 2 4.05950458184822350e-07
1638 2 4.06749805040059781e-07
1639 2 4.06739141999999959e-07
1640 2 4.09581724370390143e-07
1641 2 4.07822227499999936e-07
1642 2 4.07077074668716991e-07
1643 2 4.07280558499999940e-07
1644 2 4.06648200809595984e-07
1645 2 4.04839999146442905e-07
1646 2 4.04359519560269048e-07
1647 2 4.02971830077534255e-07
1648 2 4.02274402607628344e-07
1649 2 4.02760376052266991e-07
1650 2 4.02119070671301528e-07
1651 2 4.01762190074275918e-07
1652 2 4.02130294681100274e-07
1653 2 4.02323385369047347e-07
1654 2 4.02869326907044064e-07
1655 2 4.04931914649776201e-07
1656 2 4.02565686209605138e-07
1657 2 4.02284691509218999e-07
1658 2 4.03141608517450103e-07
1659 2 4.03689722825271434e-07
1660 2 4.03759309061902642e-07
1661 2 4.03368862612727745e-07
1662 2 4.02848947628150081e-07
1663 2 4.02424867319685692e-07
1664 2 4.01244449500000058e-07
1665 2 4.01856492212440846e-07
1666 2 4.01497926750000065e-07
1667 2 4.01483363794177498e-07
1668 2 4.06403837617232785e-07
1669 2 4.06426575004211061e-07
1670 2 4.07138526713424278e-07
1671 2 4.06537524752017242e-07
1672 2 4.05063877499999933e-07
1673 2 4.05165933564134251e-07
1674 2 4.05853656147374652e-07
1675 2 4.05744516773465756e-07
1676 2 4.04653463749999899e-07
1677 2 4.05397003008678168e-07
1678 2 4.04775571975167886e-07
1679 2 4.04808592268257622e-07
1680 2 4.06025349113359961e-07
1681 2 4.07747365083653032e-07
1682 2 4.18442866089607934e-07
1683 2 4.16707051656012168e-07
1684 2 4.17190293355292678e-07
1685 2 4.18082229040690385e-07
1686 2 4.17950569342540924e-07
1687 2 4.18044881908405382e-07
1688 2 4.18585306837804375e-07
1689 2 4.18581657862912759e-07
1690 2 4.18943710853932801e-07
1691 2 4.01028973019716881e-07
1692 2 4.00410797670035198e-07
1693 2 4.00848559443686241e-07
1694 2 4.00215223395224358e-07
1695 2 4.01603470977688928e-07
1696 2 4.02110139947534326e-07
1697 2 4.02262027060284338e-07
1698 2 4.08478157907708247e-07
1699 2 4.08276150846785095e-07
1700 2 4.17705383691828857e-07
1701 2 4.14539285763979678e-07
1702 2 4.14512410116298713e-07
1703 2 4.13909721500000027e-07
1704 2 4.13165410574794982e-07
1705 2 4.13179796560581438e-07
1706 2 4.14083328250000042e-07
1707 2 4.12721053268314905e-07
1708 2 4.13776864031893963e-07
1709 2 4.05787657642404511e-07
1710 2 4.04349861841041899e-07
1711 2 4.12764320500000054e-07
1712 2 4.12193574020260216e-07
1713 2 4.11414417827708246e-07
1714 2 4.12260040058033721e-07
1715 2 4.11429747393289687e-07
1716 2 4.11072113923889464e-07
1717 2 4.10808076998572190e-07
1718 2 4.14154995584537755e-07
1719 2 4.13287569727558195e-07
1720 2 4.13759735706579279e-07
1721 2 4.14409640817586251e-07
1722 2 4.12957279686495841e-07
1723 2 4.12774145574175376e-07
1724 2 4.13323438686481745e-07
1725 2 4.13336793970354202e-07
1726 2 4.13634533100882482e-07
1727 2 4.15199536934352326e-07
1728 2 4.14860257062969518e-07
1729 2 4.23060068268178850e-07
1730 2 4.21292109637556203e-07
1731 2 4.22278935854526643e-07
1732 2 4.22407170837072620e-07
1733 2 4.21687755499734373e-07
1734 2 4.20016789768292206e-07
1735 2 4.21420834320389397e-07
1736 2 4.18502490224652383e-07
1737 2 4.18153786936590844e-07
1738 2 4.17705054570428572e-07
1739 2 4.17398910499999931e-07
1740 2 4.17777386248378561e-07
1741 2 4.17507247749999980e-07
1742 2 4.17290573249999882e-07
1743 2 4.17698947742850787e-07
1744 2 4.13241269005090096e-07
1745 2 4.11889224410412141e-07
1746 2 4.11718813754581914e-07
1747 2 4.08355889061814878e-07
1748 2 4.10106235145922401e-07
1749 2 3.83975435909852125e-07
1750 2 3.83987080036217258e-07
1751 2 3.81690282750000018e-07
1752 2 3.83436413673296176e-07
1753 2 3.83951150836388638e-07
1754 2 3.81605328816280761e-07
1755 2 3.80799999000000018e-07
1756 2 4.18531704000000017e-07
1757 2 4.13679582708817236e-07
1758 2 4.14510631500000038e-07
1759 2 4.13734444336238530e-07
1760 2 3.98484976450668753e-07
1761 2 4.04920969488795897e-07
1762 2 4.04044826477592215e-07
1763 2 4.06893043261853446e-07
1764 2 4.06220471354515166e-07
1765 2 4.06118252825473998e-07
1766 2 4.05062803485379213e-07
1767 2 4.05079298000331421e-07
1768 2 4.02658060625863312e-07
1769 2 4.00635464150295120e-07
1770 2 4.00943668506591037e-07
1771 2 3.99764442830190750e-07
1772 2 3.96655297120932528e-07
1773 2 3.97248392453295218e-07
1774 2 3.96488329422390554e-07
1775 2 3.95947849478389307e-07
1776 2 3.97312633655606543e-07
1777 2 3.94243049270814973e-07
1778 2 3.93747048975540102e-07
1779 2 3.94196950295446333e-07
1780 2 3.93450476304247298e-07
1781 2 3.93539304667087341e-07
1782 2 3.92730118115134596e-07
1783 2 3.93054572090298692e-07
1784 2 3.95224559476772329e-07
1785 2 3.94856929999999958e-07
1786 2 3.90433551030759366e-07
1787 2 3.89691317640486878e-07
1788 2 3.89597081713824305e-07
1789 2 3.88484725999999986e-07
1790 2 3.88909369194290241e-07
1791 2 3.89077727530084230e-07
1792 2 3.90173045248158671e-07
1793 2 3.89891817239475781e-07
1794 2 3.89478648618163834e-07
1795 2 3.89061127000000029e-07
1796 2 3.90925260203725643e-07
1797 2 3.90869220805312745e-07
1798 2 3.90662912743723152e-07
1799 2 3.91098611088592068e-07
1800 2 3.91420478358080512e-07
1801 2 3.89807163326425005e-07
1802 2 3.93007988576239059e-07
1803 2 3.95642248328611742e-07
1804 2 3.95624417004335935e-07
1805 2 3.95564333081963962e-07
1806 2 3.93537400844483438e-07
1807 2 3.92980803336870367e-07
1808 2 3.91379111585671726e-07
1809 2 3.91867431992377739e-07
1810 2 3.84815905047214036e-07
1811 2 3.86237473936613605e-07
1812 2 3.88560784749644929e-07
1813 2 3.91916489858708397e-07
1814 2 4.15511902643123328e-07
1815 2 4.16014289661361338e-07
1816 2 4.15721034236649053e-07
1817 2 3.90010814999999922e-07
1818 2 3.90590182863608936e-07
1819 2 3.90776045585400943e-07
1820 2 4.07036761888209099e-07
1821 2 4.07569143500000006e-07
1822 2 4.27634368560863224e-07
1823 2 4.26738585454666081e-07
1824 2 4.25227018131228259e-07
1825 2 4.26094309090564802e-07
1826 2 4.26425982065268094e-07
1827 2 4.11698375526746280e-07
1828 2 4.19372034425032235e-07
1829 2 4.19723606500000009e-07
1830 2 4.18872189821299707e-07
1831 2 4.04925003000000045e-07
1832 2 4.03818053999999954e-07
1833 2 4.03724925588509429e-07
1834 2 4.03499297422871376e-07
1835 2 4.04196272744322165e-07
1836 2 4.04255561499999988e-07
1837 2 4.01870079388398071e-07
1838 2 4.01522866483055880e-07
1839 2 4.02230552620856635e-07
1840 2 4.02945464046146304e-07
1841 2 4.02335499830350547e-07
1842 2 4.02711055212788864e-07
1843 2 4.02244782156329529e-07
1844 2 4.02434711499999923e-07
1845 2 4.01187301067718707e-07
1846 2 4.03218919871043396e-07
1847 2 4.03380546499999921e-07
1848 2 4.01002115107467040e-07
1849 2 4.01364814660500233e-07
1850 2 4.00213940788906800e-07
1851 2 3.99474356244436439e-07
1852 2 3.99677772500000009e-07
1853 2 4.00814631617618697e-07
1854 2 3.99736581979813028e-07
1855 2 3.99113127585364769e-07
1856 2 4.00583408907736231e-07
1857 2 4.01502780999999965e-07
1858 2 4.00656947999999982e-07
1859 2 4.01147364574284668e-07
1860 2 4.04153342531156973e-07
1861 2 4.02207091582430901e-07
1862 2 4.20867489418114342e-07
1863 2 4.06620011528775151e-07
1864 2 4.01212043207129073e-07
1865 2 4.02984305146095580e-07
1866 2 4.18953399999999975e-07
1867 2 4.12561110999999990e-07
1868 2 3.98608341000000064e-07
1869 2 4.17844600999999949e-07
1870 2 4.00279178499999966e-07
1871 2 4.00769778339405940e-07
1872 2 3.93576373999999984e-07
1873 2 3.93338821529678777e-07
1874 2 3.94080464430806232e-07
1875 2 4.06843397444816172e-07
1876 2 4.11589918749999991e-07
1877 2 4.18361923481666751e-07
1878 2 4.18714557318067365e-07
1879 2 4.20177861736066461e-07
1880 2 4.10761501598673251e-07
1881 2 4.08648157347111966e-07
1882 2 4.10996514999999972e-07
1883 2 4.24880542499999986e-07
1884 2 4.06329155000000018e-07
1885 2 3.83141670999999949e-07
1886 2 3.96184711499999983e-07
